c C(2m,m,3)<= 14, m=6 dual direct encoding
c gen_direct.py 6 proofs/direct_m6.cnf --pair
p cnf 8843 26142
-1 169 0
-169 1 0
-169 170 0
-2 170 0
-170 169 2 0
-169 -2 171 0
-171 169 0
-171 2 0
-170 172 0
-3 172 0
-172 170 3 0
-171 173 0
-170 -3 173 0
-173 171 170 0
-173 171 3 0
-171 -3 174 0
-174 171 0
-174 3 0
-172 175 0
-4 175 0
-175 172 4 0
-173 176 0
-172 -4 176 0
-176 173 172 0
-176 173 4 0
-174 177 0
-173 -4 177 0
-177 174 173 0
-177 174 4 0
-174 -4 178 0
-178 174 0
-178 4 0
-175 179 0
-5 179 0
-179 175 5 0
-176 180 0
-175 -5 180 0
-180 176 175 0
-180 176 5 0
-177 181 0
-176 -5 181 0
-181 177 176 0
-181 177 5 0
-178 182 0
-177 -5 182 0
-182 178 177 0
-182 178 5 0
-178 -5 183 0
-183 178 0
-183 5 0
-179 184 0
-6 184 0
-184 179 6 0
-180 185 0
-179 -6 185 0
-185 180 179 0
-185 180 6 0
-181 186 0
-180 -6 186 0
-186 181 180 0
-186 181 6 0
-182 187 0
-181 -6 187 0
-187 182 181 0
-187 182 6 0
-183 188 0
-182 -6 188 0
-188 183 182 0
-188 183 6 0
-183 -6 189 0
-189 183 0
-189 6 0
-184 190 0
-7 190 0
-190 184 7 0
-185 191 0
-184 -7 191 0
-191 185 184 0
-191 185 7 0
-186 192 0
-185 -7 192 0
-192 186 185 0
-192 186 7 0
-187 193 0
-186 -7 193 0
-193 187 186 0
-193 187 7 0
-188 194 0
-187 -7 194 0
-194 188 187 0
-194 188 7 0
-189 195 0
-188 -7 195 0
-195 189 188 0
-195 189 7 0
-189 -7 196 0
-196 189 0
-196 7 0
-190 197 0
-8 197 0
-197 190 8 0
-191 198 0
-190 -8 198 0
-198 191 190 0
-198 191 8 0
-192 199 0
-191 -8 199 0
-199 192 191 0
-199 192 8 0
-193 200 0
-192 -8 200 0
-200 193 192 0
-200 193 8 0
-194 201 0
-193 -8 201 0
-201 194 193 0
-201 194 8 0
-195 202 0
-194 -8 202 0
-202 195 194 0
-202 195 8 0
-196 203 0
-195 -8 203 0
-203 196 195 0
-203 196 8 0
-196 -8 204 0
-204 196 0
-204 8 0
-197 205 0
-9 205 0
-205 197 9 0
-198 206 0
-197 -9 206 0
-206 198 197 0
-206 198 9 0
-199 207 0
-198 -9 207 0
-207 199 198 0
-207 199 9 0
-200 208 0
-199 -9 208 0
-208 200 199 0
-208 200 9 0
-201 209 0
-200 -9 209 0
-209 201 200 0
-209 201 9 0
-202 210 0
-201 -9 210 0
-210 202 201 0
-210 202 9 0
-203 211 0
-202 -9 211 0
-211 203 202 0
-211 203 9 0
-204 212 0
-203 -9 212 0
-212 204 203 0
-212 204 9 0
-205 213 0
-10 213 0
-213 205 10 0
-206 214 0
-205 -10 214 0
-214 206 205 0
-214 206 10 0
-207 215 0
-206 -10 215 0
-215 207 206 0
-215 207 10 0
-208 216 0
-207 -10 216 0
-216 208 207 0
-216 208 10 0
-209 217 0
-208 -10 217 0
-217 209 208 0
-217 209 10 0
-210 218 0
-209 -10 218 0
-218 210 209 0
-218 210 10 0
-211 219 0
-210 -10 219 0
-219 211 210 0
-219 211 10 0
-212 220 0
-211 -10 220 0
-220 212 211 0
-220 212 10 0
-213 221 0
-11 221 0
-221 213 11 0
-214 222 0
-213 -11 222 0
-222 214 213 0
-222 214 11 0
-215 223 0
-214 -11 223 0
-223 215 214 0
-223 215 11 0
-216 224 0
-215 -11 224 0
-224 216 215 0
-224 216 11 0
-217 225 0
-216 -11 225 0
-225 217 216 0
-225 217 11 0
-218 226 0
-217 -11 226 0
-226 218 217 0
-226 218 11 0
-219 227 0
-218 -11 227 0
-227 219 218 0
-227 219 11 0
-220 228 0
-219 -11 228 0
-228 220 219 0
-228 220 11 0
-221 229 0
-12 229 0
-229 221 12 0
-222 230 0
-221 -12 230 0
-230 222 221 0
-230 222 12 0
-223 231 0
-222 -12 231 0
-231 223 222 0
-231 223 12 0
-224 232 0
-223 -12 232 0
-232 224 223 0
-232 224 12 0
-225 233 0
-224 -12 233 0
-233 225 224 0
-233 225 12 0
-226 234 0
-225 -12 234 0
-234 226 225 0
-234 226 12 0
-227 235 0
-226 -12 235 0
-235 227 226 0
-235 227 12 0
-228 236 0
-227 -12 236 0
-236 228 227 0
-236 228 12 0
-229 237 0
-13 237 0
-237 229 13 0
-230 238 0
-229 -13 238 0
-238 230 229 0
-238 230 13 0
-231 239 0
-230 -13 239 0
-239 231 230 0
-239 231 13 0
-232 240 0
-231 -13 240 0
-240 232 231 0
-240 232 13 0
-233 241 0
-232 -13 241 0
-241 233 232 0
-241 233 13 0
-234 242 0
-233 -13 242 0
-242 234 233 0
-242 234 13 0
-235 243 0
-234 -13 243 0
-243 235 234 0
-243 235 13 0
-236 244 0
-235 -13 244 0
-244 236 235 0
-244 236 13 0
-237 245 0
-14 245 0
-245 237 14 0
-238 246 0
-237 -14 246 0
-246 238 237 0
-246 238 14 0
-239 247 0
-238 -14 247 0
-247 239 238 0
-247 239 14 0
-240 248 0
-239 -14 248 0
-248 240 239 0
-248 240 14 0
-241 249 0
-240 -14 249 0
-249 241 240 0
-249 241 14 0
-242 250 0
-241 -14 250 0
-250 242 241 0
-250 242 14 0
-243 251 0
-242 -14 251 0
-251 243 242 0
-251 243 14 0
-244 252 0
-243 -14 252 0
-252 244 243 0
-252 244 14 0
251 0
-252 0
-15 253 0
-253 15 0
-253 254 0
-16 254 0
-254 253 16 0
-253 -16 255 0
-255 253 0
-255 16 0
-254 256 0
-17 256 0
-256 254 17 0
-255 257 0
-254 -17 257 0
-257 255 254 0
-257 255 17 0
-255 -17 258 0
-258 255 0
-258 17 0
-256 259 0
-18 259 0
-259 256 18 0
-257 260 0
-256 -18 260 0
-260 257 256 0
-260 257 18 0
-258 261 0
-257 -18 261 0
-261 258 257 0
-261 258 18 0
-258 -18 262 0
-262 258 0
-262 18 0
-259 263 0
-19 263 0
-263 259 19 0
-260 264 0
-259 -19 264 0
-264 260 259 0
-264 260 19 0
-261 265 0
-260 -19 265 0
-265 261 260 0
-265 261 19 0
-262 266 0
-261 -19 266 0
-266 262 261 0
-266 262 19 0
-262 -19 267 0
-267 262 0
-267 19 0
-263 268 0
-20 268 0
-268 263 20 0
-264 269 0
-263 -20 269 0
-269 264 263 0
-269 264 20 0
-265 270 0
-264 -20 270 0
-270 265 264 0
-270 265 20 0
-266 271 0
-265 -20 271 0
-271 266 265 0
-271 266 20 0
-267 272 0
-266 -20 272 0
-272 267 266 0
-272 267 20 0
-267 -20 273 0
-273 267 0
-273 20 0
-268 274 0
-21 274 0
-274 268 21 0
-269 275 0
-268 -21 275 0
-275 269 268 0
-275 269 21 0
-270 276 0
-269 -21 276 0
-276 270 269 0
-276 270 21 0
-271 277 0
-270 -21 277 0
-277 271 270 0
-277 271 21 0
-272 278 0
-271 -21 278 0
-278 272 271 0
-278 272 21 0
-273 279 0
-272 -21 279 0
-279 273 272 0
-279 273 21 0
-273 -21 280 0
-280 273 0
-280 21 0
-274 281 0
-22 281 0
-281 274 22 0
-275 282 0
-274 -22 282 0
-282 275 274 0
-282 275 22 0
-276 283 0
-275 -22 283 0
-283 276 275 0
-283 276 22 0
-277 284 0
-276 -22 284 0
-284 277 276 0
-284 277 22 0
-278 285 0
-277 -22 285 0
-285 278 277 0
-285 278 22 0
-279 286 0
-278 -22 286 0
-286 279 278 0
-286 279 22 0
-280 287 0
-279 -22 287 0
-287 280 279 0
-287 280 22 0
-280 -22 288 0
-288 280 0
-288 22 0
-281 289 0
-23 289 0
-289 281 23 0
-282 290 0
-281 -23 290 0
-290 282 281 0
-290 282 23 0
-283 291 0
-282 -23 291 0
-291 283 282 0
-291 283 23 0
-284 292 0
-283 -23 292 0
-292 284 283 0
-292 284 23 0
-285 293 0
-284 -23 293 0
-293 285 284 0
-293 285 23 0
-286 294 0
-285 -23 294 0
-294 286 285 0
-294 286 23 0
-287 295 0
-286 -23 295 0
-295 287 286 0
-295 287 23 0
-288 296 0
-287 -23 296 0
-296 288 287 0
-296 288 23 0
-289 297 0
-24 297 0
-297 289 24 0
-290 298 0
-289 -24 298 0
-298 290 289 0
-298 290 24 0
-291 299 0
-290 -24 299 0
-299 291 290 0
-299 291 24 0
-292 300 0
-291 -24 300 0
-300 292 291 0
-300 292 24 0
-293 301 0
-292 -24 301 0
-301 293 292 0
-301 293 24 0
-294 302 0
-293 -24 302 0
-302 294 293 0
-302 294 24 0
-295 303 0
-294 -24 303 0
-303 295 294 0
-303 295 24 0
-296 304 0
-295 -24 304 0
-304 296 295 0
-304 296 24 0
-297 305 0
-25 305 0
-305 297 25 0
-298 306 0
-297 -25 306 0
-306 298 297 0
-306 298 25 0
-299 307 0
-298 -25 307 0
-307 299 298 0
-307 299 25 0
-300 308 0
-299 -25 308 0
-308 300 299 0
-308 300 25 0
-301 309 0
-300 -25 309 0
-309 301 300 0
-309 301 25 0
-302 310 0
-301 -25 310 0
-310 302 301 0
-310 302 25 0
-303 311 0
-302 -25 311 0
-311 303 302 0
-311 303 25 0
-304 312 0
-303 -25 312 0
-312 304 303 0
-312 304 25 0
-305 313 0
-26 313 0
-313 305 26 0
-306 314 0
-305 -26 314 0
-314 306 305 0
-314 306 26 0
-307 315 0
-306 -26 315 0
-315 307 306 0
-315 307 26 0
-308 316 0
-307 -26 316 0
-316 308 307 0
-316 308 26 0
-309 317 0
-308 -26 317 0
-317 309 308 0
-317 309 26 0
-310 318 0
-309 -26 318 0
-318 310 309 0
-318 310 26 0
-311 319 0
-310 -26 319 0
-319 311 310 0
-319 311 26 0
-312 320 0
-311 -26 320 0
-320 312 311 0
-320 312 26 0
-313 321 0
-27 321 0
-321 313 27 0
-314 322 0
-313 -27 322 0
-322 314 313 0
-322 314 27 0
-315 323 0
-314 -27 323 0
-323 315 314 0
-323 315 27 0
-316 324 0
-315 -27 324 0
-324 316 315 0
-324 316 27 0
-317 325 0
-316 -27 325 0
-325 317 316 0
-325 317 27 0
-318 326 0
-317 -27 326 0
-326 318 317 0
-326 318 27 0
-319 327 0
-318 -27 327 0
-327 319 318 0
-327 319 27 0
-320 328 0
-319 -27 328 0
-328 320 319 0
-328 320 27 0
-321 329 0
-28 329 0
-329 321 28 0
-322 330 0
-321 -28 330 0
-330 322 321 0
-330 322 28 0
-323 331 0
-322 -28 331 0
-331 323 322 0
-331 323 28 0
-324 332 0
-323 -28 332 0
-332 324 323 0
-332 324 28 0
-325 333 0
-324 -28 333 0
-333 325 324 0
-333 325 28 0
-326 334 0
-325 -28 334 0
-334 326 325 0
-334 326 28 0
-327 335 0
-326 -28 335 0
-335 327 326 0
-335 327 28 0
-328 336 0
-327 -28 336 0
-336 328 327 0
-336 328 28 0
335 0
-336 0
-29 337 0
-337 29 0
-337 338 0
-30 338 0
-338 337 30 0
-337 -30 339 0
-339 337 0
-339 30 0
-338 340 0
-31 340 0
-340 338 31 0
-339 341 0
-338 -31 341 0
-341 339 338 0
-341 339 31 0
-339 -31 342 0
-342 339 0
-342 31 0
-340 343 0
-32 343 0
-343 340 32 0
-341 344 0
-340 -32 344 0
-344 341 340 0
-344 341 32 0
-342 345 0
-341 -32 345 0
-345 342 341 0
-345 342 32 0
-342 -32 346 0
-346 342 0
-346 32 0
-343 347 0
-33 347 0
-347 343 33 0
-344 348 0
-343 -33 348 0
-348 344 343 0
-348 344 33 0
-345 349 0
-344 -33 349 0
-349 345 344 0
-349 345 33 0
-346 350 0
-345 -33 350 0
-350 346 345 0
-350 346 33 0
-346 -33 351 0
-351 346 0
-351 33 0
-347 352 0
-34 352 0
-352 347 34 0
-348 353 0
-347 -34 353 0
-353 348 347 0
-353 348 34 0
-349 354 0
-348 -34 354 0
-354 349 348 0
-354 349 34 0
-350 355 0
-349 -34 355 0
-355 350 349 0
-355 350 34 0
-351 356 0
-350 -34 356 0
-356 351 350 0
-356 351 34 0
-351 -34 357 0
-357 351 0
-357 34 0
-352 358 0
-35 358 0
-358 352 35 0
-353 359 0
-352 -35 359 0
-359 353 352 0
-359 353 35 0
-354 360 0
-353 -35 360 0
-360 354 353 0
-360 354 35 0
-355 361 0
-354 -35 361 0
-361 355 354 0
-361 355 35 0
-356 362 0
-355 -35 362 0
-362 356 355 0
-362 356 35 0
-357 363 0
-356 -35 363 0
-363 357 356 0
-363 357 35 0
-357 -35 364 0
-364 357 0
-364 35 0
-358 365 0
-36 365 0
-365 358 36 0
-359 366 0
-358 -36 366 0
-366 359 358 0
-366 359 36 0
-360 367 0
-359 -36 367 0
-367 360 359 0
-367 360 36 0
-361 368 0
-360 -36 368 0
-368 361 360 0
-368 361 36 0
-362 369 0
-361 -36 369 0
-369 362 361 0
-369 362 36 0
-363 370 0
-362 -36 370 0
-370 363 362 0
-370 363 36 0
-364 371 0
-363 -36 371 0
-371 364 363 0
-371 364 36 0
-364 -36 372 0
-372 364 0
-372 36 0
-365 373 0
-37 373 0
-373 365 37 0
-366 374 0
-365 -37 374 0
-374 366 365 0
-374 366 37 0
-367 375 0
-366 -37 375 0
-375 367 366 0
-375 367 37 0
-368 376 0
-367 -37 376 0
-376 368 367 0
-376 368 37 0
-369 377 0
-368 -37 377 0
-377 369 368 0
-377 369 37 0
-370 378 0
-369 -37 378 0
-378 370 369 0
-378 370 37 0
-371 379 0
-370 -37 379 0
-379 371 370 0
-379 371 37 0
-372 380 0
-371 -37 380 0
-380 372 371 0
-380 372 37 0
-373 381 0
-38 381 0
-381 373 38 0
-374 382 0
-373 -38 382 0
-382 374 373 0
-382 374 38 0
-375 383 0
-374 -38 383 0
-383 375 374 0
-383 375 38 0
-376 384 0
-375 -38 384 0
-384 376 375 0
-384 376 38 0
-377 385 0
-376 -38 385 0
-385 377 376 0
-385 377 38 0
-378 386 0
-377 -38 386 0
-386 378 377 0
-386 378 38 0
-379 387 0
-378 -38 387 0
-387 379 378 0
-387 379 38 0
-380 388 0
-379 -38 388 0
-388 380 379 0
-388 380 38 0
-381 389 0
-39 389 0
-389 381 39 0
-382 390 0
-381 -39 390 0
-390 382 381 0
-390 382 39 0
-383 391 0
-382 -39 391 0
-391 383 382 0
-391 383 39 0
-384 392 0
-383 -39 392 0
-392 384 383 0
-392 384 39 0
-385 393 0
-384 -39 393 0
-393 385 384 0
-393 385 39 0
-386 394 0
-385 -39 394 0
-394 386 385 0
-394 386 39 0
-387 395 0
-386 -39 395 0
-395 387 386 0
-395 387 39 0
-388 396 0
-387 -39 396 0
-396 388 387 0
-396 388 39 0
-389 397 0
-40 397 0
-397 389 40 0
-390 398 0
-389 -40 398 0
-398 390 389 0
-398 390 40 0
-391 399 0
-390 -40 399 0
-399 391 390 0
-399 391 40 0
-392 400 0
-391 -40 400 0
-400 392 391 0
-400 392 40 0
-393 401 0
-392 -40 401 0
-401 393 392 0
-401 393 40 0
-394 402 0
-393 -40 402 0
-402 394 393 0
-402 394 40 0
-395 403 0
-394 -40 403 0
-403 395 394 0
-403 395 40 0
-396 404 0
-395 -40 404 0
-404 396 395 0
-404 396 40 0
-397 405 0
-41 405 0
-405 397 41 0
-398 406 0
-397 -41 406 0
-406 398 397 0
-406 398 41 0
-399 407 0
-398 -41 407 0
-407 399 398 0
-407 399 41 0
-400 408 0
-399 -41 408 0
-408 400 399 0
-408 400 41 0
-401 409 0
-400 -41 409 0
-409 401 400 0
-409 401 41 0
-402 410 0
-401 -41 410 0
-410 402 401 0
-410 402 41 0
-403 411 0
-402 -41 411 0
-411 403 402 0
-411 403 41 0
-404 412 0
-403 -41 412 0
-412 404 403 0
-412 404 41 0
-405 413 0
-42 413 0
-413 405 42 0
-406 414 0
-405 -42 414 0
-414 406 405 0
-414 406 42 0
-407 415 0
-406 -42 415 0
-415 407 406 0
-415 407 42 0
-408 416 0
-407 -42 416 0
-416 408 407 0
-416 408 42 0
-409 417 0
-408 -42 417 0
-417 409 408 0
-417 409 42 0
-410 418 0
-409 -42 418 0
-418 410 409 0
-418 410 42 0
-411 419 0
-410 -42 419 0
-419 411 410 0
-419 411 42 0
-412 420 0
-411 -42 420 0
-420 412 411 0
-420 412 42 0
419 0
-420 0
-43 421 0
-421 43 0
-421 422 0
-44 422 0
-422 421 44 0
-421 -44 423 0
-423 421 0
-423 44 0
-422 424 0
-45 424 0
-424 422 45 0
-423 425 0
-422 -45 425 0
-425 423 422 0
-425 423 45 0
-423 -45 426 0
-426 423 0
-426 45 0
-424 427 0
-46 427 0
-427 424 46 0
-425 428 0
-424 -46 428 0
-428 425 424 0
-428 425 46 0
-426 429 0
-425 -46 429 0
-429 426 425 0
-429 426 46 0
-426 -46 430 0
-430 426 0
-430 46 0
-427 431 0
-47 431 0
-431 427 47 0
-428 432 0
-427 -47 432 0
-432 428 427 0
-432 428 47 0
-429 433 0
-428 -47 433 0
-433 429 428 0
-433 429 47 0
-430 434 0
-429 -47 434 0
-434 430 429 0
-434 430 47 0
-430 -47 435 0
-435 430 0
-435 47 0
-431 436 0
-48 436 0
-436 431 48 0
-432 437 0
-431 -48 437 0
-437 432 431 0
-437 432 48 0
-433 438 0
-432 -48 438 0
-438 433 432 0
-438 433 48 0
-434 439 0
-433 -48 439 0
-439 434 433 0
-439 434 48 0
-435 440 0
-434 -48 440 0
-440 435 434 0
-440 435 48 0
-435 -48 441 0
-441 435 0
-441 48 0
-436 442 0
-49 442 0
-442 436 49 0
-437 443 0
-436 -49 443 0
-443 437 436 0
-443 437 49 0
-438 444 0
-437 -49 444 0
-444 438 437 0
-444 438 49 0
-439 445 0
-438 -49 445 0
-445 439 438 0
-445 439 49 0
-440 446 0
-439 -49 446 0
-446 440 439 0
-446 440 49 0
-441 447 0
-440 -49 447 0
-447 441 440 0
-447 441 49 0
-441 -49 448 0
-448 441 0
-448 49 0
-442 449 0
-50 449 0
-449 442 50 0
-443 450 0
-442 -50 450 0
-450 443 442 0
-450 443 50 0
-444 451 0
-443 -50 451 0
-451 444 443 0
-451 444 50 0
-445 452 0
-444 -50 452 0
-452 445 444 0
-452 445 50 0
-446 453 0
-445 -50 453 0
-453 446 445 0
-453 446 50 0
-447 454 0
-446 -50 454 0
-454 447 446 0
-454 447 50 0
-448 455 0
-447 -50 455 0
-455 448 447 0
-455 448 50 0
-448 -50 456 0
-456 448 0
-456 50 0
-449 457 0
-51 457 0
-457 449 51 0
-450 458 0
-449 -51 458 0
-458 450 449 0
-458 450 51 0
-451 459 0
-450 -51 459 0
-459 451 450 0
-459 451 51 0
-452 460 0
-451 -51 460 0
-460 452 451 0
-460 452 51 0
-453 461 0
-452 -51 461 0
-461 453 452 0
-461 453 51 0
-454 462 0
-453 -51 462 0
-462 454 453 0
-462 454 51 0
-455 463 0
-454 -51 463 0
-463 455 454 0
-463 455 51 0
-456 464 0
-455 -51 464 0
-464 456 455 0
-464 456 51 0
-457 465 0
-52 465 0
-465 457 52 0
-458 466 0
-457 -52 466 0
-466 458 457 0
-466 458 52 0
-459 467 0
-458 -52 467 0
-467 459 458 0
-467 459 52 0
-460 468 0
-459 -52 468 0
-468 460 459 0
-468 460 52 0
-461 469 0
-460 -52 469 0
-469 461 460 0
-469 461 52 0
-462 470 0
-461 -52 470 0
-470 462 461 0
-470 462 52 0
-463 471 0
-462 -52 471 0
-471 463 462 0
-471 463 52 0
-464 472 0
-463 -52 472 0
-472 464 463 0
-472 464 52 0
-465 473 0
-53 473 0
-473 465 53 0
-466 474 0
-465 -53 474 0
-474 466 465 0
-474 466 53 0
-467 475 0
-466 -53 475 0
-475 467 466 0
-475 467 53 0
-468 476 0
-467 -53 476 0
-476 468 467 0
-476 468 53 0
-469 477 0
-468 -53 477 0
-477 469 468 0
-477 469 53 0
-470 478 0
-469 -53 478 0
-478 470 469 0
-478 470 53 0
-471 479 0
-470 -53 479 0
-479 471 470 0
-479 471 53 0
-472 480 0
-471 -53 480 0
-480 472 471 0
-480 472 53 0
-473 481 0
-54 481 0
-481 473 54 0
-474 482 0
-473 -54 482 0
-482 474 473 0
-482 474 54 0
-475 483 0
-474 -54 483 0
-483 475 474 0
-483 475 54 0
-476 484 0
-475 -54 484 0
-484 476 475 0
-484 476 54 0
-477 485 0
-476 -54 485 0
-485 477 476 0
-485 477 54 0
-478 486 0
-477 -54 486 0
-486 478 477 0
-486 478 54 0
-479 487 0
-478 -54 487 0
-487 479 478 0
-487 479 54 0
-480 488 0
-479 -54 488 0
-488 480 479 0
-488 480 54 0
-481 489 0
-55 489 0
-489 481 55 0
-482 490 0
-481 -55 490 0
-490 482 481 0
-490 482 55 0
-483 491 0
-482 -55 491 0
-491 483 482 0
-491 483 55 0
-484 492 0
-483 -55 492 0
-492 484 483 0
-492 484 55 0
-485 493 0
-484 -55 493 0
-493 485 484 0
-493 485 55 0
-486 494 0
-485 -55 494 0
-494 486 485 0
-494 486 55 0
-487 495 0
-486 -55 495 0
-495 487 486 0
-495 487 55 0
-488 496 0
-487 -55 496 0
-496 488 487 0
-496 488 55 0
-489 497 0
-56 497 0
-497 489 56 0
-490 498 0
-489 -56 498 0
-498 490 489 0
-498 490 56 0
-491 499 0
-490 -56 499 0
-499 491 490 0
-499 491 56 0
-492 500 0
-491 -56 500 0
-500 492 491 0
-500 492 56 0
-493 501 0
-492 -56 501 0
-501 493 492 0
-501 493 56 0
-494 502 0
-493 -56 502 0
-502 494 493 0
-502 494 56 0
-495 503 0
-494 -56 503 0
-503 495 494 0
-503 495 56 0
-496 504 0
-495 -56 504 0
-504 496 495 0
-504 496 56 0
503 0
-504 0
-57 505 0
-505 57 0
-505 506 0
-58 506 0
-506 505 58 0
-505 -58 507 0
-507 505 0
-507 58 0
-506 508 0
-59 508 0
-508 506 59 0
-507 509 0
-506 -59 509 0
-509 507 506 0
-509 507 59 0
-507 -59 510 0
-510 507 0
-510 59 0
-508 511 0
-60 511 0
-511 508 60 0
-509 512 0
-508 -60 512 0
-512 509 508 0
-512 509 60 0
-510 513 0
-509 -60 513 0
-513 510 509 0
-513 510 60 0
-510 -60 514 0
-514 510 0
-514 60 0
-511 515 0
-61 515 0
-515 511 61 0
-512 516 0
-511 -61 516 0
-516 512 511 0
-516 512 61 0
-513 517 0
-512 -61 517 0
-517 513 512 0
-517 513 61 0
-514 518 0
-513 -61 518 0
-518 514 513 0
-518 514 61 0
-514 -61 519 0
-519 514 0
-519 61 0
-515 520 0
-62 520 0
-520 515 62 0
-516 521 0
-515 -62 521 0
-521 516 515 0
-521 516 62 0
-517 522 0
-516 -62 522 0
-522 517 516 0
-522 517 62 0
-518 523 0
-517 -62 523 0
-523 518 517 0
-523 518 62 0
-519 524 0
-518 -62 524 0
-524 519 518 0
-524 519 62 0
-519 -62 525 0
-525 519 0
-525 62 0
-520 526 0
-63 526 0
-526 520 63 0
-521 527 0
-520 -63 527 0
-527 521 520 0
-527 521 63 0
-522 528 0
-521 -63 528 0
-528 522 521 0
-528 522 63 0
-523 529 0
-522 -63 529 0
-529 523 522 0
-529 523 63 0
-524 530 0
-523 -63 530 0
-530 524 523 0
-530 524 63 0
-525 531 0
-524 -63 531 0
-531 525 524 0
-531 525 63 0
-525 -63 532 0
-532 525 0
-532 63 0
-526 533 0
-64 533 0
-533 526 64 0
-527 534 0
-526 -64 534 0
-534 527 526 0
-534 527 64 0
-528 535 0
-527 -64 535 0
-535 528 527 0
-535 528 64 0
-529 536 0
-528 -64 536 0
-536 529 528 0
-536 529 64 0
-530 537 0
-529 -64 537 0
-537 530 529 0
-537 530 64 0
-531 538 0
-530 -64 538 0
-538 531 530 0
-538 531 64 0
-532 539 0
-531 -64 539 0
-539 532 531 0
-539 532 64 0
-532 -64 540 0
-540 532 0
-540 64 0
-533 541 0
-65 541 0
-541 533 65 0
-534 542 0
-533 -65 542 0
-542 534 533 0
-542 534 65 0
-535 543 0
-534 -65 543 0
-543 535 534 0
-543 535 65 0
-536 544 0
-535 -65 544 0
-544 536 535 0
-544 536 65 0
-537 545 0
-536 -65 545 0
-545 537 536 0
-545 537 65 0
-538 546 0
-537 -65 546 0
-546 538 537 0
-546 538 65 0
-539 547 0
-538 -65 547 0
-547 539 538 0
-547 539 65 0
-540 548 0
-539 -65 548 0
-548 540 539 0
-548 540 65 0
-541 549 0
-66 549 0
-549 541 66 0
-542 550 0
-541 -66 550 0
-550 542 541 0
-550 542 66 0
-543 551 0
-542 -66 551 0
-551 543 542 0
-551 543 66 0
-544 552 0
-543 -66 552 0
-552 544 543 0
-552 544 66 0
-545 553 0
-544 -66 553 0
-553 545 544 0
-553 545 66 0
-546 554 0
-545 -66 554 0
-554 546 545 0
-554 546 66 0
-547 555 0
-546 -66 555 0
-555 547 546 0
-555 547 66 0
-548 556 0
-547 -66 556 0
-556 548 547 0
-556 548 66 0
-549 557 0
-67 557 0
-557 549 67 0
-550 558 0
-549 -67 558 0
-558 550 549 0
-558 550 67 0
-551 559 0
-550 -67 559 0
-559 551 550 0
-559 551 67 0
-552 560 0
-551 -67 560 0
-560 552 551 0
-560 552 67 0
-553 561 0
-552 -67 561 0
-561 553 552 0
-561 553 67 0
-554 562 0
-553 -67 562 0
-562 554 553 0
-562 554 67 0
-555 563 0
-554 -67 563 0
-563 555 554 0
-563 555 67 0
-556 564 0
-555 -67 564 0
-564 556 555 0
-564 556 67 0
-557 565 0
-68 565 0
-565 557 68 0
-558 566 0
-557 -68 566 0
-566 558 557 0
-566 558 68 0
-559 567 0
-558 -68 567 0
-567 559 558 0
-567 559 68 0
-560 568 0
-559 -68 568 0
-568 560 559 0
-568 560 68 0
-561 569 0
-560 -68 569 0
-569 561 560 0
-569 561 68 0
-562 570 0
-561 -68 570 0
-570 562 561 0
-570 562 68 0
-563 571 0
-562 -68 571 0
-571 563 562 0
-571 563 68 0
-564 572 0
-563 -68 572 0
-572 564 563 0
-572 564 68 0
-565 573 0
-69 573 0
-573 565 69 0
-566 574 0
-565 -69 574 0
-574 566 565 0
-574 566 69 0
-567 575 0
-566 -69 575 0
-575 567 566 0
-575 567 69 0
-568 576 0
-567 -69 576 0
-576 568 567 0
-576 568 69 0
-569 577 0
-568 -69 577 0
-577 569 568 0
-577 569 69 0
-570 578 0
-569 -69 578 0
-578 570 569 0
-578 570 69 0
-571 579 0
-570 -69 579 0
-579 571 570 0
-579 571 69 0
-572 580 0
-571 -69 580 0
-580 572 571 0
-580 572 69 0
-573 581 0
-70 581 0
-581 573 70 0
-574 582 0
-573 -70 582 0
-582 574 573 0
-582 574 70 0
-575 583 0
-574 -70 583 0
-583 575 574 0
-583 575 70 0
-576 584 0
-575 -70 584 0
-584 576 575 0
-584 576 70 0
-577 585 0
-576 -70 585 0
-585 577 576 0
-585 577 70 0
-578 586 0
-577 -70 586 0
-586 578 577 0
-586 578 70 0
-579 587 0
-578 -70 587 0
-587 579 578 0
-587 579 70 0
-580 588 0
-579 -70 588 0
-588 580 579 0
-588 580 70 0
587 0
-588 0
-71 589 0
-589 71 0
-589 590 0
-72 590 0
-590 589 72 0
-589 -72 591 0
-591 589 0
-591 72 0
-590 592 0
-73 592 0
-592 590 73 0
-591 593 0
-590 -73 593 0
-593 591 590 0
-593 591 73 0
-591 -73 594 0
-594 591 0
-594 73 0
-592 595 0
-74 595 0
-595 592 74 0
-593 596 0
-592 -74 596 0
-596 593 592 0
-596 593 74 0
-594 597 0
-593 -74 597 0
-597 594 593 0
-597 594 74 0
-594 -74 598 0
-598 594 0
-598 74 0
-595 599 0
-75 599 0
-599 595 75 0
-596 600 0
-595 -75 600 0
-600 596 595 0
-600 596 75 0
-597 601 0
-596 -75 601 0
-601 597 596 0
-601 597 75 0
-598 602 0
-597 -75 602 0
-602 598 597 0
-602 598 75 0
-598 -75 603 0
-603 598 0
-603 75 0
-599 604 0
-76 604 0
-604 599 76 0
-600 605 0
-599 -76 605 0
-605 600 599 0
-605 600 76 0
-601 606 0
-600 -76 606 0
-606 601 600 0
-606 601 76 0
-602 607 0
-601 -76 607 0
-607 602 601 0
-607 602 76 0
-603 608 0
-602 -76 608 0
-608 603 602 0
-608 603 76 0
-603 -76 609 0
-609 603 0
-609 76 0
-604 610 0
-77 610 0
-610 604 77 0
-605 611 0
-604 -77 611 0
-611 605 604 0
-611 605 77 0
-606 612 0
-605 -77 612 0
-612 606 605 0
-612 606 77 0
-607 613 0
-606 -77 613 0
-613 607 606 0
-613 607 77 0
-608 614 0
-607 -77 614 0
-614 608 607 0
-614 608 77 0
-609 615 0
-608 -77 615 0
-615 609 608 0
-615 609 77 0
-609 -77 616 0
-616 609 0
-616 77 0
-610 617 0
-78 617 0
-617 610 78 0
-611 618 0
-610 -78 618 0
-618 611 610 0
-618 611 78 0
-612 619 0
-611 -78 619 0
-619 612 611 0
-619 612 78 0
-613 620 0
-612 -78 620 0
-620 613 612 0
-620 613 78 0
-614 621 0
-613 -78 621 0
-621 614 613 0
-621 614 78 0
-615 622 0
-614 -78 622 0
-622 615 614 0
-622 615 78 0
-616 623 0
-615 -78 623 0
-623 616 615 0
-623 616 78 0
-616 -78 624 0
-624 616 0
-624 78 0
-617 625 0
-79 625 0
-625 617 79 0
-618 626 0
-617 -79 626 0
-626 618 617 0
-626 618 79 0
-619 627 0
-618 -79 627 0
-627 619 618 0
-627 619 79 0
-620 628 0
-619 -79 628 0
-628 620 619 0
-628 620 79 0
-621 629 0
-620 -79 629 0
-629 621 620 0
-629 621 79 0
-622 630 0
-621 -79 630 0
-630 622 621 0
-630 622 79 0
-623 631 0
-622 -79 631 0
-631 623 622 0
-631 623 79 0
-624 632 0
-623 -79 632 0
-632 624 623 0
-632 624 79 0
-625 633 0
-80 633 0
-633 625 80 0
-626 634 0
-625 -80 634 0
-634 626 625 0
-634 626 80 0
-627 635 0
-626 -80 635 0
-635 627 626 0
-635 627 80 0
-628 636 0
-627 -80 636 0
-636 628 627 0
-636 628 80 0
-629 637 0
-628 -80 637 0
-637 629 628 0
-637 629 80 0
-630 638 0
-629 -80 638 0
-638 630 629 0
-638 630 80 0
-631 639 0
-630 -80 639 0
-639 631 630 0
-639 631 80 0
-632 640 0
-631 -80 640 0
-640 632 631 0
-640 632 80 0
-633 641 0
-81 641 0
-641 633 81 0
-634 642 0
-633 -81 642 0
-642 634 633 0
-642 634 81 0
-635 643 0
-634 -81 643 0
-643 635 634 0
-643 635 81 0
-636 644 0
-635 -81 644 0
-644 636 635 0
-644 636 81 0
-637 645 0
-636 -81 645 0
-645 637 636 0
-645 637 81 0
-638 646 0
-637 -81 646 0
-646 638 637 0
-646 638 81 0
-639 647 0
-638 -81 647 0
-647 639 638 0
-647 639 81 0
-640 648 0
-639 -81 648 0
-648 640 639 0
-648 640 81 0
-641 649 0
-82 649 0
-649 641 82 0
-642 650 0
-641 -82 650 0
-650 642 641 0
-650 642 82 0
-643 651 0
-642 -82 651 0
-651 643 642 0
-651 643 82 0
-644 652 0
-643 -82 652 0
-652 644 643 0
-652 644 82 0
-645 653 0
-644 -82 653 0
-653 645 644 0
-653 645 82 0
-646 654 0
-645 -82 654 0
-654 646 645 0
-654 646 82 0
-647 655 0
-646 -82 655 0
-655 647 646 0
-655 647 82 0
-648 656 0
-647 -82 656 0
-656 648 647 0
-656 648 82 0
-649 657 0
-83 657 0
-657 649 83 0
-650 658 0
-649 -83 658 0
-658 650 649 0
-658 650 83 0
-651 659 0
-650 -83 659 0
-659 651 650 0
-659 651 83 0
-652 660 0
-651 -83 660 0
-660 652 651 0
-660 652 83 0
-653 661 0
-652 -83 661 0
-661 653 652 0
-661 653 83 0
-654 662 0
-653 -83 662 0
-662 654 653 0
-662 654 83 0
-655 663 0
-654 -83 663 0
-663 655 654 0
-663 655 83 0
-656 664 0
-655 -83 664 0
-664 656 655 0
-664 656 83 0
-657 665 0
-84 665 0
-665 657 84 0
-658 666 0
-657 -84 666 0
-666 658 657 0
-666 658 84 0
-659 667 0
-658 -84 667 0
-667 659 658 0
-667 659 84 0
-660 668 0
-659 -84 668 0
-668 660 659 0
-668 660 84 0
-661 669 0
-660 -84 669 0
-669 661 660 0
-669 661 84 0
-662 670 0
-661 -84 670 0
-670 662 661 0
-670 662 84 0
-663 671 0
-662 -84 671 0
-671 663 662 0
-671 663 84 0
-664 672 0
-663 -84 672 0
-672 664 663 0
-672 664 84 0
671 0
-672 0
-85 673 0
-673 85 0
-673 674 0
-86 674 0
-674 673 86 0
-673 -86 675 0
-675 673 0
-675 86 0
-674 676 0
-87 676 0
-676 674 87 0
-675 677 0
-674 -87 677 0
-677 675 674 0
-677 675 87 0
-675 -87 678 0
-678 675 0
-678 87 0
-676 679 0
-88 679 0
-679 676 88 0
-677 680 0
-676 -88 680 0
-680 677 676 0
-680 677 88 0
-678 681 0
-677 -88 681 0
-681 678 677 0
-681 678 88 0
-678 -88 682 0
-682 678 0
-682 88 0
-679 683 0
-89 683 0
-683 679 89 0
-680 684 0
-679 -89 684 0
-684 680 679 0
-684 680 89 0
-681 685 0
-680 -89 685 0
-685 681 680 0
-685 681 89 0
-682 686 0
-681 -89 686 0
-686 682 681 0
-686 682 89 0
-682 -89 687 0
-687 682 0
-687 89 0
-683 688 0
-90 688 0
-688 683 90 0
-684 689 0
-683 -90 689 0
-689 684 683 0
-689 684 90 0
-685 690 0
-684 -90 690 0
-690 685 684 0
-690 685 90 0
-686 691 0
-685 -90 691 0
-691 686 685 0
-691 686 90 0
-687 692 0
-686 -90 692 0
-692 687 686 0
-692 687 90 0
-687 -90 693 0
-693 687 0
-693 90 0
-688 694 0
-91 694 0
-694 688 91 0
-689 695 0
-688 -91 695 0
-695 689 688 0
-695 689 91 0
-690 696 0
-689 -91 696 0
-696 690 689 0
-696 690 91 0
-691 697 0
-690 -91 697 0
-697 691 690 0
-697 691 91 0
-692 698 0
-691 -91 698 0
-698 692 691 0
-698 692 91 0
-693 699 0
-692 -91 699 0
-699 693 692 0
-699 693 91 0
-693 -91 700 0
-700 693 0
-700 91 0
-694 701 0
-92 701 0
-701 694 92 0
-695 702 0
-694 -92 702 0
-702 695 694 0
-702 695 92 0
-696 703 0
-695 -92 703 0
-703 696 695 0
-703 696 92 0
-697 704 0
-696 -92 704 0
-704 697 696 0
-704 697 92 0
-698 705 0
-697 -92 705 0
-705 698 697 0
-705 698 92 0
-699 706 0
-698 -92 706 0
-706 699 698 0
-706 699 92 0
-700 707 0
-699 -92 707 0
-707 700 699 0
-707 700 92 0
-700 -92 708 0
-708 700 0
-708 92 0
-701 709 0
-93 709 0
-709 701 93 0
-702 710 0
-701 -93 710 0
-710 702 701 0
-710 702 93 0
-703 711 0
-702 -93 711 0
-711 703 702 0
-711 703 93 0
-704 712 0
-703 -93 712 0
-712 704 703 0
-712 704 93 0
-705 713 0
-704 -93 713 0
-713 705 704 0
-713 705 93 0
-706 714 0
-705 -93 714 0
-714 706 705 0
-714 706 93 0
-707 715 0
-706 -93 715 0
-715 707 706 0
-715 707 93 0
-708 716 0
-707 -93 716 0
-716 708 707 0
-716 708 93 0
-709 717 0
-94 717 0
-717 709 94 0
-710 718 0
-709 -94 718 0
-718 710 709 0
-718 710 94 0
-711 719 0
-710 -94 719 0
-719 711 710 0
-719 711 94 0
-712 720 0
-711 -94 720 0
-720 712 711 0
-720 712 94 0
-713 721 0
-712 -94 721 0
-721 713 712 0
-721 713 94 0
-714 722 0
-713 -94 722 0
-722 714 713 0
-722 714 94 0
-715 723 0
-714 -94 723 0
-723 715 714 0
-723 715 94 0
-716 724 0
-715 -94 724 0
-724 716 715 0
-724 716 94 0
-717 725 0
-95 725 0
-725 717 95 0
-718 726 0
-717 -95 726 0
-726 718 717 0
-726 718 95 0
-719 727 0
-718 -95 727 0
-727 719 718 0
-727 719 95 0
-720 728 0
-719 -95 728 0
-728 720 719 0
-728 720 95 0
-721 729 0
-720 -95 729 0
-729 721 720 0
-729 721 95 0
-722 730 0
-721 -95 730 0
-730 722 721 0
-730 722 95 0
-723 731 0
-722 -95 731 0
-731 723 722 0
-731 723 95 0
-724 732 0
-723 -95 732 0
-732 724 723 0
-732 724 95 0
-725 733 0
-96 733 0
-733 725 96 0
-726 734 0
-725 -96 734 0
-734 726 725 0
-734 726 96 0
-727 735 0
-726 -96 735 0
-735 727 726 0
-735 727 96 0
-728 736 0
-727 -96 736 0
-736 728 727 0
-736 728 96 0
-729 737 0
-728 -96 737 0
-737 729 728 0
-737 729 96 0
-730 738 0
-729 -96 738 0
-738 730 729 0
-738 730 96 0
-731 739 0
-730 -96 739 0
-739 731 730 0
-739 731 96 0
-732 740 0
-731 -96 740 0
-740 732 731 0
-740 732 96 0
-733 741 0
-97 741 0
-741 733 97 0
-734 742 0
-733 -97 742 0
-742 734 733 0
-742 734 97 0
-735 743 0
-734 -97 743 0
-743 735 734 0
-743 735 97 0
-736 744 0
-735 -97 744 0
-744 736 735 0
-744 736 97 0
-737 745 0
-736 -97 745 0
-745 737 736 0
-745 737 97 0
-738 746 0
-737 -97 746 0
-746 738 737 0
-746 738 97 0
-739 747 0
-738 -97 747 0
-747 739 738 0
-747 739 97 0
-740 748 0
-739 -97 748 0
-748 740 739 0
-748 740 97 0
-741 749 0
-98 749 0
-749 741 98 0
-742 750 0
-741 -98 750 0
-750 742 741 0
-750 742 98 0
-743 751 0
-742 -98 751 0
-751 743 742 0
-751 743 98 0
-744 752 0
-743 -98 752 0
-752 744 743 0
-752 744 98 0
-745 753 0
-744 -98 753 0
-753 745 744 0
-753 745 98 0
-746 754 0
-745 -98 754 0
-754 746 745 0
-754 746 98 0
-747 755 0
-746 -98 755 0
-755 747 746 0
-755 747 98 0
-748 756 0
-747 -98 756 0
-756 748 747 0
-756 748 98 0
755 0
-756 0
-99 757 0
-757 99 0
-757 758 0
-100 758 0
-758 757 100 0
-757 -100 759 0
-759 757 0
-759 100 0
-758 760 0
-101 760 0
-760 758 101 0
-759 761 0
-758 -101 761 0
-761 759 758 0
-761 759 101 0
-759 -101 762 0
-762 759 0
-762 101 0
-760 763 0
-102 763 0
-763 760 102 0
-761 764 0
-760 -102 764 0
-764 761 760 0
-764 761 102 0
-762 765 0
-761 -102 765 0
-765 762 761 0
-765 762 102 0
-762 -102 766 0
-766 762 0
-766 102 0
-763 767 0
-103 767 0
-767 763 103 0
-764 768 0
-763 -103 768 0
-768 764 763 0
-768 764 103 0
-765 769 0
-764 -103 769 0
-769 765 764 0
-769 765 103 0
-766 770 0
-765 -103 770 0
-770 766 765 0
-770 766 103 0
-766 -103 771 0
-771 766 0
-771 103 0
-767 772 0
-104 772 0
-772 767 104 0
-768 773 0
-767 -104 773 0
-773 768 767 0
-773 768 104 0
-769 774 0
-768 -104 774 0
-774 769 768 0
-774 769 104 0
-770 775 0
-769 -104 775 0
-775 770 769 0
-775 770 104 0
-771 776 0
-770 -104 776 0
-776 771 770 0
-776 771 104 0
-771 -104 777 0
-777 771 0
-777 104 0
-772 778 0
-105 778 0
-778 772 105 0
-773 779 0
-772 -105 779 0
-779 773 772 0
-779 773 105 0
-774 780 0
-773 -105 780 0
-780 774 773 0
-780 774 105 0
-775 781 0
-774 -105 781 0
-781 775 774 0
-781 775 105 0
-776 782 0
-775 -105 782 0
-782 776 775 0
-782 776 105 0
-777 783 0
-776 -105 783 0
-783 777 776 0
-783 777 105 0
-777 -105 784 0
-784 777 0
-784 105 0
-778 785 0
-106 785 0
-785 778 106 0
-779 786 0
-778 -106 786 0
-786 779 778 0
-786 779 106 0
-780 787 0
-779 -106 787 0
-787 780 779 0
-787 780 106 0
-781 788 0
-780 -106 788 0
-788 781 780 0
-788 781 106 0
-782 789 0
-781 -106 789 0
-789 782 781 0
-789 782 106 0
-783 790 0
-782 -106 790 0
-790 783 782 0
-790 783 106 0
-784 791 0
-783 -106 791 0
-791 784 783 0
-791 784 106 0
-784 -106 792 0
-792 784 0
-792 106 0
-785 793 0
-107 793 0
-793 785 107 0
-786 794 0
-785 -107 794 0
-794 786 785 0
-794 786 107 0
-787 795 0
-786 -107 795 0
-795 787 786 0
-795 787 107 0
-788 796 0
-787 -107 796 0
-796 788 787 0
-796 788 107 0
-789 797 0
-788 -107 797 0
-797 789 788 0
-797 789 107 0
-790 798 0
-789 -107 798 0
-798 790 789 0
-798 790 107 0
-791 799 0
-790 -107 799 0
-799 791 790 0
-799 791 107 0
-792 800 0
-791 -107 800 0
-800 792 791 0
-800 792 107 0
-793 801 0
-108 801 0
-801 793 108 0
-794 802 0
-793 -108 802 0
-802 794 793 0
-802 794 108 0
-795 803 0
-794 -108 803 0
-803 795 794 0
-803 795 108 0
-796 804 0
-795 -108 804 0
-804 796 795 0
-804 796 108 0
-797 805 0
-796 -108 805 0
-805 797 796 0
-805 797 108 0
-798 806 0
-797 -108 806 0
-806 798 797 0
-806 798 108 0
-799 807 0
-798 -108 807 0
-807 799 798 0
-807 799 108 0
-800 808 0
-799 -108 808 0
-808 800 799 0
-808 800 108 0
-801 809 0
-109 809 0
-809 801 109 0
-802 810 0
-801 -109 810 0
-810 802 801 0
-810 802 109 0
-803 811 0
-802 -109 811 0
-811 803 802 0
-811 803 109 0
-804 812 0
-803 -109 812 0
-812 804 803 0
-812 804 109 0
-805 813 0
-804 -109 813 0
-813 805 804 0
-813 805 109 0
-806 814 0
-805 -109 814 0
-814 806 805 0
-814 806 109 0
-807 815 0
-806 -109 815 0
-815 807 806 0
-815 807 109 0
-808 816 0
-807 -109 816 0
-816 808 807 0
-816 808 109 0
-809 817 0
-110 817 0
-817 809 110 0
-810 818 0
-809 -110 818 0
-818 810 809 0
-818 810 110 0
-811 819 0
-810 -110 819 0
-819 811 810 0
-819 811 110 0
-812 820 0
-811 -110 820 0
-820 812 811 0
-820 812 110 0
-813 821 0
-812 -110 821 0
-821 813 812 0
-821 813 110 0
-814 822 0
-813 -110 822 0
-822 814 813 0
-822 814 110 0
-815 823 0
-814 -110 823 0
-823 815 814 0
-823 815 110 0
-816 824 0
-815 -110 824 0
-824 816 815 0
-824 816 110 0
-817 825 0
-111 825 0
-825 817 111 0
-818 826 0
-817 -111 826 0
-826 818 817 0
-826 818 111 0
-819 827 0
-818 -111 827 0
-827 819 818 0
-827 819 111 0
-820 828 0
-819 -111 828 0
-828 820 819 0
-828 820 111 0
-821 829 0
-820 -111 829 0
-829 821 820 0
-829 821 111 0
-822 830 0
-821 -111 830 0
-830 822 821 0
-830 822 111 0
-823 831 0
-822 -111 831 0
-831 823 822 0
-831 823 111 0
-824 832 0
-823 -111 832 0
-832 824 823 0
-832 824 111 0
-825 833 0
-112 833 0
-833 825 112 0
-826 834 0
-825 -112 834 0
-834 826 825 0
-834 826 112 0
-827 835 0
-826 -112 835 0
-835 827 826 0
-835 827 112 0
-828 836 0
-827 -112 836 0
-836 828 827 0
-836 828 112 0
-829 837 0
-828 -112 837 0
-837 829 828 0
-837 829 112 0
-830 838 0
-829 -112 838 0
-838 830 829 0
-838 830 112 0
-831 839 0
-830 -112 839 0
-839 831 830 0
-839 831 112 0
-832 840 0
-831 -112 840 0
-840 832 831 0
-840 832 112 0
839 0
-840 0
-113 841 0
-841 113 0
-841 842 0
-114 842 0
-842 841 114 0
-841 -114 843 0
-843 841 0
-843 114 0
-842 844 0
-115 844 0
-844 842 115 0
-843 845 0
-842 -115 845 0
-845 843 842 0
-845 843 115 0
-843 -115 846 0
-846 843 0
-846 115 0
-844 847 0
-116 847 0
-847 844 116 0
-845 848 0
-844 -116 848 0
-848 845 844 0
-848 845 116 0
-846 849 0
-845 -116 849 0
-849 846 845 0
-849 846 116 0
-846 -116 850 0
-850 846 0
-850 116 0
-847 851 0
-117 851 0
-851 847 117 0
-848 852 0
-847 -117 852 0
-852 848 847 0
-852 848 117 0
-849 853 0
-848 -117 853 0
-853 849 848 0
-853 849 117 0
-850 854 0
-849 -117 854 0
-854 850 849 0
-854 850 117 0
-850 -117 855 0
-855 850 0
-855 117 0
-851 856 0
-118 856 0
-856 851 118 0
-852 857 0
-851 -118 857 0
-857 852 851 0
-857 852 118 0
-853 858 0
-852 -118 858 0
-858 853 852 0
-858 853 118 0
-854 859 0
-853 -118 859 0
-859 854 853 0
-859 854 118 0
-855 860 0
-854 -118 860 0
-860 855 854 0
-860 855 118 0
-855 -118 861 0
-861 855 0
-861 118 0
-856 862 0
-119 862 0
-862 856 119 0
-857 863 0
-856 -119 863 0
-863 857 856 0
-863 857 119 0
-858 864 0
-857 -119 864 0
-864 858 857 0
-864 858 119 0
-859 865 0
-858 -119 865 0
-865 859 858 0
-865 859 119 0
-860 866 0
-859 -119 866 0
-866 860 859 0
-866 860 119 0
-861 867 0
-860 -119 867 0
-867 861 860 0
-867 861 119 0
-861 -119 868 0
-868 861 0
-868 119 0
-862 869 0
-120 869 0
-869 862 120 0
-863 870 0
-862 -120 870 0
-870 863 862 0
-870 863 120 0
-864 871 0
-863 -120 871 0
-871 864 863 0
-871 864 120 0
-865 872 0
-864 -120 872 0
-872 865 864 0
-872 865 120 0
-866 873 0
-865 -120 873 0
-873 866 865 0
-873 866 120 0
-867 874 0
-866 -120 874 0
-874 867 866 0
-874 867 120 0
-868 875 0
-867 -120 875 0
-875 868 867 0
-875 868 120 0
-868 -120 876 0
-876 868 0
-876 120 0
-869 877 0
-121 877 0
-877 869 121 0
-870 878 0
-869 -121 878 0
-878 870 869 0
-878 870 121 0
-871 879 0
-870 -121 879 0
-879 871 870 0
-879 871 121 0
-872 880 0
-871 -121 880 0
-880 872 871 0
-880 872 121 0
-873 881 0
-872 -121 881 0
-881 873 872 0
-881 873 121 0
-874 882 0
-873 -121 882 0
-882 874 873 0
-882 874 121 0
-875 883 0
-874 -121 883 0
-883 875 874 0
-883 875 121 0
-876 884 0
-875 -121 884 0
-884 876 875 0
-884 876 121 0
-877 885 0
-122 885 0
-885 877 122 0
-878 886 0
-877 -122 886 0
-886 878 877 0
-886 878 122 0
-879 887 0
-878 -122 887 0
-887 879 878 0
-887 879 122 0
-880 888 0
-879 -122 888 0
-888 880 879 0
-888 880 122 0
-881 889 0
-880 -122 889 0
-889 881 880 0
-889 881 122 0
-882 890 0
-881 -122 890 0
-890 882 881 0
-890 882 122 0
-883 891 0
-882 -122 891 0
-891 883 882 0
-891 883 122 0
-884 892 0
-883 -122 892 0
-892 884 883 0
-892 884 122 0
-885 893 0
-123 893 0
-893 885 123 0
-886 894 0
-885 -123 894 0
-894 886 885 0
-894 886 123 0
-887 895 0
-886 -123 895 0
-895 887 886 0
-895 887 123 0
-888 896 0
-887 -123 896 0
-896 888 887 0
-896 888 123 0
-889 897 0
-888 -123 897 0
-897 889 888 0
-897 889 123 0
-890 898 0
-889 -123 898 0
-898 890 889 0
-898 890 123 0
-891 899 0
-890 -123 899 0
-899 891 890 0
-899 891 123 0
-892 900 0
-891 -123 900 0
-900 892 891 0
-900 892 123 0
-893 901 0
-124 901 0
-901 893 124 0
-894 902 0
-893 -124 902 0
-902 894 893 0
-902 894 124 0
-895 903 0
-894 -124 903 0
-903 895 894 0
-903 895 124 0
-896 904 0
-895 -124 904 0
-904 896 895 0
-904 896 124 0
-897 905 0
-896 -124 905 0
-905 897 896 0
-905 897 124 0
-898 906 0
-897 -124 906 0
-906 898 897 0
-906 898 124 0
-899 907 0
-898 -124 907 0
-907 899 898 0
-907 899 124 0
-900 908 0
-899 -124 908 0
-908 900 899 0
-908 900 124 0
-901 909 0
-125 909 0
-909 901 125 0
-902 910 0
-901 -125 910 0
-910 902 901 0
-910 902 125 0
-903 911 0
-902 -125 911 0
-911 903 902 0
-911 903 125 0
-904 912 0
-903 -125 912 0
-912 904 903 0
-912 904 125 0
-905 913 0
-904 -125 913 0
-913 905 904 0
-913 905 125 0
-906 914 0
-905 -125 914 0
-914 906 905 0
-914 906 125 0
-907 915 0
-906 -125 915 0
-915 907 906 0
-915 907 125 0
-908 916 0
-907 -125 916 0
-916 908 907 0
-916 908 125 0
-909 917 0
-126 917 0
-917 909 126 0
-910 918 0
-909 -126 918 0
-918 910 909 0
-918 910 126 0
-911 919 0
-910 -126 919 0
-919 911 910 0
-919 911 126 0
-912 920 0
-911 -126 920 0
-920 912 911 0
-920 912 126 0
-913 921 0
-912 -126 921 0
-921 913 912 0
-921 913 126 0
-914 922 0
-913 -126 922 0
-922 914 913 0
-922 914 126 0
-915 923 0
-914 -126 923 0
-923 915 914 0
-923 915 126 0
-916 924 0
-915 -126 924 0
-924 916 915 0
-924 916 126 0
923 0
-924 0
-127 925 0
-925 127 0
-925 926 0
-128 926 0
-926 925 128 0
-925 -128 927 0
-927 925 0
-927 128 0
-926 928 0
-129 928 0
-928 926 129 0
-927 929 0
-926 -129 929 0
-929 927 926 0
-929 927 129 0
-927 -129 930 0
-930 927 0
-930 129 0
-928 931 0
-130 931 0
-931 928 130 0
-929 932 0
-928 -130 932 0
-932 929 928 0
-932 929 130 0
-930 933 0
-929 -130 933 0
-933 930 929 0
-933 930 130 0
-930 -130 934 0
-934 930 0
-934 130 0
-931 935 0
-131 935 0
-935 931 131 0
-932 936 0
-931 -131 936 0
-936 932 931 0
-936 932 131 0
-933 937 0
-932 -131 937 0
-937 933 932 0
-937 933 131 0
-934 938 0
-933 -131 938 0
-938 934 933 0
-938 934 131 0
-934 -131 939 0
-939 934 0
-939 131 0
-935 940 0
-132 940 0
-940 935 132 0
-936 941 0
-935 -132 941 0
-941 936 935 0
-941 936 132 0
-937 942 0
-936 -132 942 0
-942 937 936 0
-942 937 132 0
-938 943 0
-937 -132 943 0
-943 938 937 0
-943 938 132 0
-939 944 0
-938 -132 944 0
-944 939 938 0
-944 939 132 0
-939 -132 945 0
-945 939 0
-945 132 0
-940 946 0
-133 946 0
-946 940 133 0
-941 947 0
-940 -133 947 0
-947 941 940 0
-947 941 133 0
-942 948 0
-941 -133 948 0
-948 942 941 0
-948 942 133 0
-943 949 0
-942 -133 949 0
-949 943 942 0
-949 943 133 0
-944 950 0
-943 -133 950 0
-950 944 943 0
-950 944 133 0
-945 951 0
-944 -133 951 0
-951 945 944 0
-951 945 133 0
-945 -133 952 0
-952 945 0
-952 133 0
-946 953 0
-134 953 0
-953 946 134 0
-947 954 0
-946 -134 954 0
-954 947 946 0
-954 947 134 0
-948 955 0
-947 -134 955 0
-955 948 947 0
-955 948 134 0
-949 956 0
-948 -134 956 0
-956 949 948 0
-956 949 134 0
-950 957 0
-949 -134 957 0
-957 950 949 0
-957 950 134 0
-951 958 0
-950 -134 958 0
-958 951 950 0
-958 951 134 0
-952 959 0
-951 -134 959 0
-959 952 951 0
-959 952 134 0
-952 -134 960 0
-960 952 0
-960 134 0
-953 961 0
-135 961 0
-961 953 135 0
-954 962 0
-953 -135 962 0
-962 954 953 0
-962 954 135 0
-955 963 0
-954 -135 963 0
-963 955 954 0
-963 955 135 0
-956 964 0
-955 -135 964 0
-964 956 955 0
-964 956 135 0
-957 965 0
-956 -135 965 0
-965 957 956 0
-965 957 135 0
-958 966 0
-957 -135 966 0
-966 958 957 0
-966 958 135 0
-959 967 0
-958 -135 967 0
-967 959 958 0
-967 959 135 0
-960 968 0
-959 -135 968 0
-968 960 959 0
-968 960 135 0
-961 969 0
-136 969 0
-969 961 136 0
-962 970 0
-961 -136 970 0
-970 962 961 0
-970 962 136 0
-963 971 0
-962 -136 971 0
-971 963 962 0
-971 963 136 0
-964 972 0
-963 -136 972 0
-972 964 963 0
-972 964 136 0
-965 973 0
-964 -136 973 0
-973 965 964 0
-973 965 136 0
-966 974 0
-965 -136 974 0
-974 966 965 0
-974 966 136 0
-967 975 0
-966 -136 975 0
-975 967 966 0
-975 967 136 0
-968 976 0
-967 -136 976 0
-976 968 967 0
-976 968 136 0
-969 977 0
-137 977 0
-977 969 137 0
-970 978 0
-969 -137 978 0
-978 970 969 0
-978 970 137 0
-971 979 0
-970 -137 979 0
-979 971 970 0
-979 971 137 0
-972 980 0
-971 -137 980 0
-980 972 971 0
-980 972 137 0
-973 981 0
-972 -137 981 0
-981 973 972 0
-981 973 137 0
-974 982 0
-973 -137 982 0
-982 974 973 0
-982 974 137 0
-975 983 0
-974 -137 983 0
-983 975 974 0
-983 975 137 0
-976 984 0
-975 -137 984 0
-984 976 975 0
-984 976 137 0
-977 985 0
-138 985 0
-985 977 138 0
-978 986 0
-977 -138 986 0
-986 978 977 0
-986 978 138 0
-979 987 0
-978 -138 987 0
-987 979 978 0
-987 979 138 0
-980 988 0
-979 -138 988 0
-988 980 979 0
-988 980 138 0
-981 989 0
-980 -138 989 0
-989 981 980 0
-989 981 138 0
-982 990 0
-981 -138 990 0
-990 982 981 0
-990 982 138 0
-983 991 0
-982 -138 991 0
-991 983 982 0
-991 983 138 0
-984 992 0
-983 -138 992 0
-992 984 983 0
-992 984 138 0
-985 993 0
-139 993 0
-993 985 139 0
-986 994 0
-985 -139 994 0
-994 986 985 0
-994 986 139 0
-987 995 0
-986 -139 995 0
-995 987 986 0
-995 987 139 0
-988 996 0
-987 -139 996 0
-996 988 987 0
-996 988 139 0
-989 997 0
-988 -139 997 0
-997 989 988 0
-997 989 139 0
-990 998 0
-989 -139 998 0
-998 990 989 0
-998 990 139 0
-991 999 0
-990 -139 999 0
-999 991 990 0
-999 991 139 0
-992 1000 0
-991 -139 1000 0
-1000 992 991 0
-1000 992 139 0
-993 1001 0
-140 1001 0
-1001 993 140 0
-994 1002 0
-993 -140 1002 0
-1002 994 993 0
-1002 994 140 0
-995 1003 0
-994 -140 1003 0
-1003 995 994 0
-1003 995 140 0
-996 1004 0
-995 -140 1004 0
-1004 996 995 0
-1004 996 140 0
-997 1005 0
-996 -140 1005 0
-1005 997 996 0
-1005 997 140 0
-998 1006 0
-997 -140 1006 0
-1006 998 997 0
-1006 998 140 0
-999 1007 0
-998 -140 1007 0
-1007 999 998 0
-1007 999 140 0
-1000 1008 0
-999 -140 1008 0
-1008 1000 999 0
-1008 1000 140 0
1007 0
-1008 0
-141 1009 0
-1009 141 0
-1009 1010 0
-142 1010 0
-1010 1009 142 0
-1009 -142 1011 0
-1011 1009 0
-1011 142 0
-1010 1012 0
-143 1012 0
-1012 1010 143 0
-1011 1013 0
-1010 -143 1013 0
-1013 1011 1010 0
-1013 1011 143 0
-1011 -143 1014 0
-1014 1011 0
-1014 143 0
-1012 1015 0
-144 1015 0
-1015 1012 144 0
-1013 1016 0
-1012 -144 1016 0
-1016 1013 1012 0
-1016 1013 144 0
-1014 1017 0
-1013 -144 1017 0
-1017 1014 1013 0
-1017 1014 144 0
-1014 -144 1018 0
-1018 1014 0
-1018 144 0
-1015 1019 0
-145 1019 0
-1019 1015 145 0
-1016 1020 0
-1015 -145 1020 0
-1020 1016 1015 0
-1020 1016 145 0
-1017 1021 0
-1016 -145 1021 0
-1021 1017 1016 0
-1021 1017 145 0
-1018 1022 0
-1017 -145 1022 0
-1022 1018 1017 0
-1022 1018 145 0
-1018 -145 1023 0
-1023 1018 0
-1023 145 0
-1019 1024 0
-146 1024 0
-1024 1019 146 0
-1020 1025 0
-1019 -146 1025 0
-1025 1020 1019 0
-1025 1020 146 0
-1021 1026 0
-1020 -146 1026 0
-1026 1021 1020 0
-1026 1021 146 0
-1022 1027 0
-1021 -146 1027 0
-1027 1022 1021 0
-1027 1022 146 0
-1023 1028 0
-1022 -146 1028 0
-1028 1023 1022 0
-1028 1023 146 0
-1023 -146 1029 0
-1029 1023 0
-1029 146 0
-1024 1030 0
-147 1030 0
-1030 1024 147 0
-1025 1031 0
-1024 -147 1031 0
-1031 1025 1024 0
-1031 1025 147 0
-1026 1032 0
-1025 -147 1032 0
-1032 1026 1025 0
-1032 1026 147 0
-1027 1033 0
-1026 -147 1033 0
-1033 1027 1026 0
-1033 1027 147 0
-1028 1034 0
-1027 -147 1034 0
-1034 1028 1027 0
-1034 1028 147 0
-1029 1035 0
-1028 -147 1035 0
-1035 1029 1028 0
-1035 1029 147 0
-1029 -147 1036 0
-1036 1029 0
-1036 147 0
-1030 1037 0
-148 1037 0
-1037 1030 148 0
-1031 1038 0
-1030 -148 1038 0
-1038 1031 1030 0
-1038 1031 148 0
-1032 1039 0
-1031 -148 1039 0
-1039 1032 1031 0
-1039 1032 148 0
-1033 1040 0
-1032 -148 1040 0
-1040 1033 1032 0
-1040 1033 148 0
-1034 1041 0
-1033 -148 1041 0
-1041 1034 1033 0
-1041 1034 148 0
-1035 1042 0
-1034 -148 1042 0
-1042 1035 1034 0
-1042 1035 148 0
-1036 1043 0
-1035 -148 1043 0
-1043 1036 1035 0
-1043 1036 148 0
-1036 -148 1044 0
-1044 1036 0
-1044 148 0
-1037 1045 0
-149 1045 0
-1045 1037 149 0
-1038 1046 0
-1037 -149 1046 0
-1046 1038 1037 0
-1046 1038 149 0
-1039 1047 0
-1038 -149 1047 0
-1047 1039 1038 0
-1047 1039 149 0
-1040 1048 0
-1039 -149 1048 0
-1048 1040 1039 0
-1048 1040 149 0
-1041 1049 0
-1040 -149 1049 0
-1049 1041 1040 0
-1049 1041 149 0
-1042 1050 0
-1041 -149 1050 0
-1050 1042 1041 0
-1050 1042 149 0
-1043 1051 0
-1042 -149 1051 0
-1051 1043 1042 0
-1051 1043 149 0
-1044 1052 0
-1043 -149 1052 0
-1052 1044 1043 0
-1052 1044 149 0
-1045 1053 0
-150 1053 0
-1053 1045 150 0
-1046 1054 0
-1045 -150 1054 0
-1054 1046 1045 0
-1054 1046 150 0
-1047 1055 0
-1046 -150 1055 0
-1055 1047 1046 0
-1055 1047 150 0
-1048 1056 0
-1047 -150 1056 0
-1056 1048 1047 0
-1056 1048 150 0
-1049 1057 0
-1048 -150 1057 0
-1057 1049 1048 0
-1057 1049 150 0
-1050 1058 0
-1049 -150 1058 0
-1058 1050 1049 0
-1058 1050 150 0
-1051 1059 0
-1050 -150 1059 0
-1059 1051 1050 0
-1059 1051 150 0
-1052 1060 0
-1051 -150 1060 0
-1060 1052 1051 0
-1060 1052 150 0
-1053 1061 0
-151 1061 0
-1061 1053 151 0
-1054 1062 0
-1053 -151 1062 0
-1062 1054 1053 0
-1062 1054 151 0
-1055 1063 0
-1054 -151 1063 0
-1063 1055 1054 0
-1063 1055 151 0
-1056 1064 0
-1055 -151 1064 0
-1064 1056 1055 0
-1064 1056 151 0
-1057 1065 0
-1056 -151 1065 0
-1065 1057 1056 0
-1065 1057 151 0
-1058 1066 0
-1057 -151 1066 0
-1066 1058 1057 0
-1066 1058 151 0
-1059 1067 0
-1058 -151 1067 0
-1067 1059 1058 0
-1067 1059 151 0
-1060 1068 0
-1059 -151 1068 0
-1068 1060 1059 0
-1068 1060 151 0
-1061 1069 0
-152 1069 0
-1069 1061 152 0
-1062 1070 0
-1061 -152 1070 0
-1070 1062 1061 0
-1070 1062 152 0
-1063 1071 0
-1062 -152 1071 0
-1071 1063 1062 0
-1071 1063 152 0
-1064 1072 0
-1063 -152 1072 0
-1072 1064 1063 0
-1072 1064 152 0
-1065 1073 0
-1064 -152 1073 0
-1073 1065 1064 0
-1073 1065 152 0
-1066 1074 0
-1065 -152 1074 0
-1074 1066 1065 0
-1074 1066 152 0
-1067 1075 0
-1066 -152 1075 0
-1075 1067 1066 0
-1075 1067 152 0
-1068 1076 0
-1067 -152 1076 0
-1076 1068 1067 0
-1076 1068 152 0
-1069 1077 0
-153 1077 0
-1077 1069 153 0
-1070 1078 0
-1069 -153 1078 0
-1078 1070 1069 0
-1078 1070 153 0
-1071 1079 0
-1070 -153 1079 0
-1079 1071 1070 0
-1079 1071 153 0
-1072 1080 0
-1071 -153 1080 0
-1080 1072 1071 0
-1080 1072 153 0
-1073 1081 0
-1072 -153 1081 0
-1081 1073 1072 0
-1081 1073 153 0
-1074 1082 0
-1073 -153 1082 0
-1082 1074 1073 0
-1082 1074 153 0
-1075 1083 0
-1074 -153 1083 0
-1083 1075 1074 0
-1083 1075 153 0
-1076 1084 0
-1075 -153 1084 0
-1084 1076 1075 0
-1084 1076 153 0
-1077 1085 0
-154 1085 0
-1085 1077 154 0
-1078 1086 0
-1077 -154 1086 0
-1086 1078 1077 0
-1086 1078 154 0
-1079 1087 0
-1078 -154 1087 0
-1087 1079 1078 0
-1087 1079 154 0
-1080 1088 0
-1079 -154 1088 0
-1088 1080 1079 0
-1088 1080 154 0
-1081 1089 0
-1080 -154 1089 0
-1089 1081 1080 0
-1089 1081 154 0
-1082 1090 0
-1081 -154 1090 0
-1090 1082 1081 0
-1090 1082 154 0
-1083 1091 0
-1082 -154 1091 0
-1091 1083 1082 0
-1091 1083 154 0
-1084 1092 0
-1083 -154 1092 0
-1092 1084 1083 0
-1092 1084 154 0
1091 0
-1092 0
-155 1093 0
-1093 155 0
-1093 1094 0
-156 1094 0
-1094 1093 156 0
-1093 -156 1095 0
-1095 1093 0
-1095 156 0
-1094 1096 0
-157 1096 0
-1096 1094 157 0
-1095 1097 0
-1094 -157 1097 0
-1097 1095 1094 0
-1097 1095 157 0
-1095 -157 1098 0
-1098 1095 0
-1098 157 0
-1096 1099 0
-158 1099 0
-1099 1096 158 0
-1097 1100 0
-1096 -158 1100 0
-1100 1097 1096 0
-1100 1097 158 0
-1098 1101 0
-1097 -158 1101 0
-1101 1098 1097 0
-1101 1098 158 0
-1098 -158 1102 0
-1102 1098 0
-1102 158 0
-1099 1103 0
-159 1103 0
-1103 1099 159 0
-1100 1104 0
-1099 -159 1104 0
-1104 1100 1099 0
-1104 1100 159 0
-1101 1105 0
-1100 -159 1105 0
-1105 1101 1100 0
-1105 1101 159 0
-1102 1106 0
-1101 -159 1106 0
-1106 1102 1101 0
-1106 1102 159 0
-1102 -159 1107 0
-1107 1102 0
-1107 159 0
-1103 1108 0
-160 1108 0
-1108 1103 160 0
-1104 1109 0
-1103 -160 1109 0
-1109 1104 1103 0
-1109 1104 160 0
-1105 1110 0
-1104 -160 1110 0
-1110 1105 1104 0
-1110 1105 160 0
-1106 1111 0
-1105 -160 1111 0
-1111 1106 1105 0
-1111 1106 160 0
-1107 1112 0
-1106 -160 1112 0
-1112 1107 1106 0
-1112 1107 160 0
-1107 -160 1113 0
-1113 1107 0
-1113 160 0
-1108 1114 0
-161 1114 0
-1114 1108 161 0
-1109 1115 0
-1108 -161 1115 0
-1115 1109 1108 0
-1115 1109 161 0
-1110 1116 0
-1109 -161 1116 0
-1116 1110 1109 0
-1116 1110 161 0
-1111 1117 0
-1110 -161 1117 0
-1117 1111 1110 0
-1117 1111 161 0
-1112 1118 0
-1111 -161 1118 0
-1118 1112 1111 0
-1118 1112 161 0
-1113 1119 0
-1112 -161 1119 0
-1119 1113 1112 0
-1119 1113 161 0
-1113 -161 1120 0
-1120 1113 0
-1120 161 0
-1114 1121 0
-162 1121 0
-1121 1114 162 0
-1115 1122 0
-1114 -162 1122 0
-1122 1115 1114 0
-1122 1115 162 0
-1116 1123 0
-1115 -162 1123 0
-1123 1116 1115 0
-1123 1116 162 0
-1117 1124 0
-1116 -162 1124 0
-1124 1117 1116 0
-1124 1117 162 0
-1118 1125 0
-1117 -162 1125 0
-1125 1118 1117 0
-1125 1118 162 0
-1119 1126 0
-1118 -162 1126 0
-1126 1119 1118 0
-1126 1119 162 0
-1120 1127 0
-1119 -162 1127 0
-1127 1120 1119 0
-1127 1120 162 0
-1120 -162 1128 0
-1128 1120 0
-1128 162 0
-1121 1129 0
-163 1129 0
-1129 1121 163 0
-1122 1130 0
-1121 -163 1130 0
-1130 1122 1121 0
-1130 1122 163 0
-1123 1131 0
-1122 -163 1131 0
-1131 1123 1122 0
-1131 1123 163 0
-1124 1132 0
-1123 -163 1132 0
-1132 1124 1123 0
-1132 1124 163 0
-1125 1133 0
-1124 -163 1133 0
-1133 1125 1124 0
-1133 1125 163 0
-1126 1134 0
-1125 -163 1134 0
-1134 1126 1125 0
-1134 1126 163 0
-1127 1135 0
-1126 -163 1135 0
-1135 1127 1126 0
-1135 1127 163 0
-1128 1136 0
-1127 -163 1136 0
-1136 1128 1127 0
-1136 1128 163 0
-1129 1137 0
-164 1137 0
-1137 1129 164 0
-1130 1138 0
-1129 -164 1138 0
-1138 1130 1129 0
-1138 1130 164 0
-1131 1139 0
-1130 -164 1139 0
-1139 1131 1130 0
-1139 1131 164 0
-1132 1140 0
-1131 -164 1140 0
-1140 1132 1131 0
-1140 1132 164 0
-1133 1141 0
-1132 -164 1141 0
-1141 1133 1132 0
-1141 1133 164 0
-1134 1142 0
-1133 -164 1142 0
-1142 1134 1133 0
-1142 1134 164 0
-1135 1143 0
-1134 -164 1143 0
-1143 1135 1134 0
-1143 1135 164 0
-1136 1144 0
-1135 -164 1144 0
-1144 1136 1135 0
-1144 1136 164 0
-1137 1145 0
-165 1145 0
-1145 1137 165 0
-1138 1146 0
-1137 -165 1146 0
-1146 1138 1137 0
-1146 1138 165 0
-1139 1147 0
-1138 -165 1147 0
-1147 1139 1138 0
-1147 1139 165 0
-1140 1148 0
-1139 -165 1148 0
-1148 1140 1139 0
-1148 1140 165 0
-1141 1149 0
-1140 -165 1149 0
-1149 1141 1140 0
-1149 1141 165 0
-1142 1150 0
-1141 -165 1150 0
-1150 1142 1141 0
-1150 1142 165 0
-1143 1151 0
-1142 -165 1151 0
-1151 1143 1142 0
-1151 1143 165 0
-1144 1152 0
-1143 -165 1152 0
-1152 1144 1143 0
-1152 1144 165 0
-1145 1153 0
-166 1153 0
-1153 1145 166 0
-1146 1154 0
-1145 -166 1154 0
-1154 1146 1145 0
-1154 1146 166 0
-1147 1155 0
-1146 -166 1155 0
-1155 1147 1146 0
-1155 1147 166 0
-1148 1156 0
-1147 -166 1156 0
-1156 1148 1147 0
-1156 1148 166 0
-1149 1157 0
-1148 -166 1157 0
-1157 1149 1148 0
-1157 1149 166 0
-1150 1158 0
-1149 -166 1158 0
-1158 1150 1149 0
-1158 1150 166 0
-1151 1159 0
-1150 -166 1159 0
-1159 1151 1150 0
-1159 1151 166 0
-1152 1160 0
-1151 -166 1160 0
-1160 1152 1151 0
-1160 1152 166 0
-1153 1161 0
-167 1161 0
-1161 1153 167 0
-1154 1162 0
-1153 -167 1162 0
-1162 1154 1153 0
-1162 1154 167 0
-1155 1163 0
-1154 -167 1163 0
-1163 1155 1154 0
-1163 1155 167 0
-1156 1164 0
-1155 -167 1164 0
-1164 1156 1155 0
-1164 1156 167 0
-1157 1165 0
-1156 -167 1165 0
-1165 1157 1156 0
-1165 1157 167 0
-1158 1166 0
-1157 -167 1166 0
-1166 1158 1157 0
-1166 1158 167 0
-1159 1167 0
-1158 -167 1167 0
-1167 1159 1158 0
-1167 1159 167 0
-1160 1168 0
-1159 -167 1168 0
-1168 1160 1159 0
-1168 1160 167 0
-1161 1169 0
-168 1169 0
-1169 1161 168 0
-1162 1170 0
-1161 -168 1170 0
-1170 1162 1161 0
-1170 1162 168 0
-1163 1171 0
-1162 -168 1171 0
-1171 1163 1162 0
-1171 1163 168 0
-1164 1172 0
-1163 -168 1172 0
-1172 1164 1163 0
-1172 1164 168 0
-1165 1173 0
-1164 -168 1173 0
-1173 1165 1164 0
-1173 1165 168 0
-1166 1174 0
-1165 -168 1174 0
-1174 1166 1165 0
-1174 1166 168 0
-1167 1175 0
-1166 -168 1175 0
-1175 1167 1166 0
-1175 1167 168 0
-1168 1176 0
-1167 -168 1176 0
-1176 1168 1167 0
-1176 1168 168 0
1175 0
-1176 0
-1 1177 0
-1177 1 0
-1177 1178 0
-15 1178 0
-1178 1177 15 0
-1177 -15 1179 0
-1179 1177 0
-1179 15 0
-1178 1180 0
-29 1180 0
-1180 1178 29 0
-1179 1181 0
-1178 -29 1181 0
-1181 1179 1178 0
-1181 1179 29 0
-1179 -29 1182 0
-1182 1179 0
-1182 29 0
-1180 1183 0
-43 1183 0
-1183 1180 43 0
-1181 1184 0
-1180 -43 1184 0
-1184 1181 1180 0
-1184 1181 43 0
-1182 1185 0
-1181 -43 1185 0
-1185 1182 1181 0
-1185 1182 43 0
-1182 -43 1186 0
-1186 1182 0
-1186 43 0
-1183 1187 0
-57 1187 0
-1187 1183 57 0
-1184 1188 0
-1183 -57 1188 0
-1188 1184 1183 0
-1188 1184 57 0
-1185 1189 0
-1184 -57 1189 0
-1189 1185 1184 0
-1189 1185 57 0
-1186 1190 0
-1185 -57 1190 0
-1190 1186 1185 0
-1190 1186 57 0
-1186 -57 1191 0
-1191 1186 0
-1191 57 0
-1187 1192 0
-71 1192 0
-1192 1187 71 0
-1188 1193 0
-1187 -71 1193 0
-1193 1188 1187 0
-1193 1188 71 0
-1189 1194 0
-1188 -71 1194 0
-1194 1189 1188 0
-1194 1189 71 0
-1190 1195 0
-1189 -71 1195 0
-1195 1190 1189 0
-1195 1190 71 0
-1191 1196 0
-1190 -71 1196 0
-1196 1191 1190 0
-1196 1191 71 0
-1191 -71 1197 0
-1197 1191 0
-1197 71 0
-1192 1198 0
-85 1198 0
-1198 1192 85 0
-1193 1199 0
-1192 -85 1199 0
-1199 1193 1192 0
-1199 1193 85 0
-1194 1200 0
-1193 -85 1200 0
-1200 1194 1193 0
-1200 1194 85 0
-1195 1201 0
-1194 -85 1201 0
-1201 1195 1194 0
-1201 1195 85 0
-1196 1202 0
-1195 -85 1202 0
-1202 1196 1195 0
-1202 1196 85 0
-1197 1203 0
-1196 -85 1203 0
-1203 1197 1196 0
-1203 1197 85 0
-1197 -85 1204 0
-1204 1197 0
-1204 85 0
-1198 1205 0
-99 1205 0
-1205 1198 99 0
-1199 1206 0
-1198 -99 1206 0
-1206 1199 1198 0
-1206 1199 99 0
-1200 1207 0
-1199 -99 1207 0
-1207 1200 1199 0
-1207 1200 99 0
-1201 1208 0
-1200 -99 1208 0
-1208 1201 1200 0
-1208 1201 99 0
-1202 1209 0
-1201 -99 1209 0
-1209 1202 1201 0
-1209 1202 99 0
-1203 1210 0
-1202 -99 1210 0
-1210 1203 1202 0
-1210 1203 99 0
-1204 1211 0
-1203 -99 1211 0
-1211 1204 1203 0
-1211 1204 99 0
-1205 1212 0
-113 1212 0
-1212 1205 113 0
-1206 1213 0
-1205 -113 1213 0
-1213 1206 1205 0
-1213 1206 113 0
-1207 1214 0
-1206 -113 1214 0
-1214 1207 1206 0
-1214 1207 113 0
-1208 1215 0
-1207 -113 1215 0
-1215 1208 1207 0
-1215 1208 113 0
-1209 1216 0
-1208 -113 1216 0
-1216 1209 1208 0
-1216 1209 113 0
-1210 1217 0
-1209 -113 1217 0
-1217 1210 1209 0
-1217 1210 113 0
-1211 1218 0
-1210 -113 1218 0
-1218 1211 1210 0
-1218 1211 113 0
-1212 1219 0
-127 1219 0
-1219 1212 127 0
-1213 1220 0
-1212 -127 1220 0
-1220 1213 1212 0
-1220 1213 127 0
-1214 1221 0
-1213 -127 1221 0
-1221 1214 1213 0
-1221 1214 127 0
-1215 1222 0
-1214 -127 1222 0
-1222 1215 1214 0
-1222 1215 127 0
-1216 1223 0
-1215 -127 1223 0
-1223 1216 1215 0
-1223 1216 127 0
-1217 1224 0
-1216 -127 1224 0
-1224 1217 1216 0
-1224 1217 127 0
-1218 1225 0
-1217 -127 1225 0
-1225 1218 1217 0
-1225 1218 127 0
-1219 1226 0
-141 1226 0
-1226 1219 141 0
-1220 1227 0
-1219 -141 1227 0
-1227 1220 1219 0
-1227 1220 141 0
-1221 1228 0
-1220 -141 1228 0
-1228 1221 1220 0
-1228 1221 141 0
-1222 1229 0
-1221 -141 1229 0
-1229 1222 1221 0
-1229 1222 141 0
-1223 1230 0
-1222 -141 1230 0
-1230 1223 1222 0
-1230 1223 141 0
-1224 1231 0
-1223 -141 1231 0
-1231 1224 1223 0
-1231 1224 141 0
-1225 1232 0
-1224 -141 1232 0
-1232 1225 1224 0
-1232 1225 141 0
-1226 1233 0
-155 1233 0
-1233 1226 155 0
-1227 1234 0
-1226 -155 1234 0
-1234 1227 1226 0
-1234 1227 155 0
-1228 1235 0
-1227 -155 1235 0
-1235 1228 1227 0
-1235 1228 155 0
-1229 1236 0
-1228 -155 1236 0
-1236 1229 1228 0
-1236 1229 155 0
-1230 1237 0
-1229 -155 1237 0
-1237 1230 1229 0
-1237 1230 155 0
-1231 1238 0
-1230 -155 1238 0
-1238 1231 1230 0
-1238 1231 155 0
-1232 1239 0
-1231 -155 1239 0
-1239 1232 1231 0
-1239 1232 155 0
1238 0
-1239 0
-2 1240 0
-1240 2 0
-1240 1241 0
-16 1241 0
-1241 1240 16 0
-1240 -16 1242 0
-1242 1240 0
-1242 16 0
-1241 1243 0
-30 1243 0
-1243 1241 30 0
-1242 1244 0
-1241 -30 1244 0
-1244 1242 1241 0
-1244 1242 30 0
-1242 -30 1245 0
-1245 1242 0
-1245 30 0
-1243 1246 0
-44 1246 0
-1246 1243 44 0
-1244 1247 0
-1243 -44 1247 0
-1247 1244 1243 0
-1247 1244 44 0
-1245 1248 0
-1244 -44 1248 0
-1248 1245 1244 0
-1248 1245 44 0
-1245 -44 1249 0
-1249 1245 0
-1249 44 0
-1246 1250 0
-58 1250 0
-1250 1246 58 0
-1247 1251 0
-1246 -58 1251 0
-1251 1247 1246 0
-1251 1247 58 0
-1248 1252 0
-1247 -58 1252 0
-1252 1248 1247 0
-1252 1248 58 0
-1249 1253 0
-1248 -58 1253 0
-1253 1249 1248 0
-1253 1249 58 0
-1249 -58 1254 0
-1254 1249 0
-1254 58 0
-1250 1255 0
-72 1255 0
-1255 1250 72 0
-1251 1256 0
-1250 -72 1256 0
-1256 1251 1250 0
-1256 1251 72 0
-1252 1257 0
-1251 -72 1257 0
-1257 1252 1251 0
-1257 1252 72 0
-1253 1258 0
-1252 -72 1258 0
-1258 1253 1252 0
-1258 1253 72 0
-1254 1259 0
-1253 -72 1259 0
-1259 1254 1253 0
-1259 1254 72 0
-1254 -72 1260 0
-1260 1254 0
-1260 72 0
-1255 1261 0
-86 1261 0
-1261 1255 86 0
-1256 1262 0
-1255 -86 1262 0
-1262 1256 1255 0
-1262 1256 86 0
-1257 1263 0
-1256 -86 1263 0
-1263 1257 1256 0
-1263 1257 86 0
-1258 1264 0
-1257 -86 1264 0
-1264 1258 1257 0
-1264 1258 86 0
-1259 1265 0
-1258 -86 1265 0
-1265 1259 1258 0
-1265 1259 86 0
-1260 1266 0
-1259 -86 1266 0
-1266 1260 1259 0
-1266 1260 86 0
-1260 -86 1267 0
-1267 1260 0
-1267 86 0
-1261 1268 0
-100 1268 0
-1268 1261 100 0
-1262 1269 0
-1261 -100 1269 0
-1269 1262 1261 0
-1269 1262 100 0
-1263 1270 0
-1262 -100 1270 0
-1270 1263 1262 0
-1270 1263 100 0
-1264 1271 0
-1263 -100 1271 0
-1271 1264 1263 0
-1271 1264 100 0
-1265 1272 0
-1264 -100 1272 0
-1272 1265 1264 0
-1272 1265 100 0
-1266 1273 0
-1265 -100 1273 0
-1273 1266 1265 0
-1273 1266 100 0
-1267 1274 0
-1266 -100 1274 0
-1274 1267 1266 0
-1274 1267 100 0
-1268 1275 0
-114 1275 0
-1275 1268 114 0
-1269 1276 0
-1268 -114 1276 0
-1276 1269 1268 0
-1276 1269 114 0
-1270 1277 0
-1269 -114 1277 0
-1277 1270 1269 0
-1277 1270 114 0
-1271 1278 0
-1270 -114 1278 0
-1278 1271 1270 0
-1278 1271 114 0
-1272 1279 0
-1271 -114 1279 0
-1279 1272 1271 0
-1279 1272 114 0
-1273 1280 0
-1272 -114 1280 0
-1280 1273 1272 0
-1280 1273 114 0
-1274 1281 0
-1273 -114 1281 0
-1281 1274 1273 0
-1281 1274 114 0
-1275 1282 0
-128 1282 0
-1282 1275 128 0
-1276 1283 0
-1275 -128 1283 0
-1283 1276 1275 0
-1283 1276 128 0
-1277 1284 0
-1276 -128 1284 0
-1284 1277 1276 0
-1284 1277 128 0
-1278 1285 0
-1277 -128 1285 0
-1285 1278 1277 0
-1285 1278 128 0
-1279 1286 0
-1278 -128 1286 0
-1286 1279 1278 0
-1286 1279 128 0
-1280 1287 0
-1279 -128 1287 0
-1287 1280 1279 0
-1287 1280 128 0
-1281 1288 0
-1280 -128 1288 0
-1288 1281 1280 0
-1288 1281 128 0
-1282 1289 0
-142 1289 0
-1289 1282 142 0
-1283 1290 0
-1282 -142 1290 0
-1290 1283 1282 0
-1290 1283 142 0
-1284 1291 0
-1283 -142 1291 0
-1291 1284 1283 0
-1291 1284 142 0
-1285 1292 0
-1284 -142 1292 0
-1292 1285 1284 0
-1292 1285 142 0
-1286 1293 0
-1285 -142 1293 0
-1293 1286 1285 0
-1293 1286 142 0
-1287 1294 0
-1286 -142 1294 0
-1294 1287 1286 0
-1294 1287 142 0
-1288 1295 0
-1287 -142 1295 0
-1295 1288 1287 0
-1295 1288 142 0
-1289 1296 0
-156 1296 0
-1296 1289 156 0
-1290 1297 0
-1289 -156 1297 0
-1297 1290 1289 0
-1297 1290 156 0
-1291 1298 0
-1290 -156 1298 0
-1298 1291 1290 0
-1298 1291 156 0
-1292 1299 0
-1291 -156 1299 0
-1299 1292 1291 0
-1299 1292 156 0
-1293 1300 0
-1292 -156 1300 0
-1300 1293 1292 0
-1300 1293 156 0
-1294 1301 0
-1293 -156 1301 0
-1301 1294 1293 0
-1301 1294 156 0
-1295 1302 0
-1294 -156 1302 0
-1302 1295 1294 0
-1302 1295 156 0
1301 0
-1302 0
-3 1303 0
-1303 3 0
-1303 1304 0
-17 1304 0
-1304 1303 17 0
-1303 -17 1305 0
-1305 1303 0
-1305 17 0
-1304 1306 0
-31 1306 0
-1306 1304 31 0
-1305 1307 0
-1304 -31 1307 0
-1307 1305 1304 0
-1307 1305 31 0
-1305 -31 1308 0
-1308 1305 0
-1308 31 0
-1306 1309 0
-45 1309 0
-1309 1306 45 0
-1307 1310 0
-1306 -45 1310 0
-1310 1307 1306 0
-1310 1307 45 0
-1308 1311 0
-1307 -45 1311 0
-1311 1308 1307 0
-1311 1308 45 0
-1308 -45 1312 0
-1312 1308 0
-1312 45 0
-1309 1313 0
-59 1313 0
-1313 1309 59 0
-1310 1314 0
-1309 -59 1314 0
-1314 1310 1309 0
-1314 1310 59 0
-1311 1315 0
-1310 -59 1315 0
-1315 1311 1310 0
-1315 1311 59 0
-1312 1316 0
-1311 -59 1316 0
-1316 1312 1311 0
-1316 1312 59 0
-1312 -59 1317 0
-1317 1312 0
-1317 59 0
-1313 1318 0
-73 1318 0
-1318 1313 73 0
-1314 1319 0
-1313 -73 1319 0
-1319 1314 1313 0
-1319 1314 73 0
-1315 1320 0
-1314 -73 1320 0
-1320 1315 1314 0
-1320 1315 73 0
-1316 1321 0
-1315 -73 1321 0
-1321 1316 1315 0
-1321 1316 73 0
-1317 1322 0
-1316 -73 1322 0
-1322 1317 1316 0
-1322 1317 73 0
-1317 -73 1323 0
-1323 1317 0
-1323 73 0
-1318 1324 0
-87 1324 0
-1324 1318 87 0
-1319 1325 0
-1318 -87 1325 0
-1325 1319 1318 0
-1325 1319 87 0
-1320 1326 0
-1319 -87 1326 0
-1326 1320 1319 0
-1326 1320 87 0
-1321 1327 0
-1320 -87 1327 0
-1327 1321 1320 0
-1327 1321 87 0
-1322 1328 0
-1321 -87 1328 0
-1328 1322 1321 0
-1328 1322 87 0
-1323 1329 0
-1322 -87 1329 0
-1329 1323 1322 0
-1329 1323 87 0
-1323 -87 1330 0
-1330 1323 0
-1330 87 0
-1324 1331 0
-101 1331 0
-1331 1324 101 0
-1325 1332 0
-1324 -101 1332 0
-1332 1325 1324 0
-1332 1325 101 0
-1326 1333 0
-1325 -101 1333 0
-1333 1326 1325 0
-1333 1326 101 0
-1327 1334 0
-1326 -101 1334 0
-1334 1327 1326 0
-1334 1327 101 0
-1328 1335 0
-1327 -101 1335 0
-1335 1328 1327 0
-1335 1328 101 0
-1329 1336 0
-1328 -101 1336 0
-1336 1329 1328 0
-1336 1329 101 0
-1330 1337 0
-1329 -101 1337 0
-1337 1330 1329 0
-1337 1330 101 0
-1331 1338 0
-115 1338 0
-1338 1331 115 0
-1332 1339 0
-1331 -115 1339 0
-1339 1332 1331 0
-1339 1332 115 0
-1333 1340 0
-1332 -115 1340 0
-1340 1333 1332 0
-1340 1333 115 0
-1334 1341 0
-1333 -115 1341 0
-1341 1334 1333 0
-1341 1334 115 0
-1335 1342 0
-1334 -115 1342 0
-1342 1335 1334 0
-1342 1335 115 0
-1336 1343 0
-1335 -115 1343 0
-1343 1336 1335 0
-1343 1336 115 0
-1337 1344 0
-1336 -115 1344 0
-1344 1337 1336 0
-1344 1337 115 0
-1338 1345 0
-129 1345 0
-1345 1338 129 0
-1339 1346 0
-1338 -129 1346 0
-1346 1339 1338 0
-1346 1339 129 0
-1340 1347 0
-1339 -129 1347 0
-1347 1340 1339 0
-1347 1340 129 0
-1341 1348 0
-1340 -129 1348 0
-1348 1341 1340 0
-1348 1341 129 0
-1342 1349 0
-1341 -129 1349 0
-1349 1342 1341 0
-1349 1342 129 0
-1343 1350 0
-1342 -129 1350 0
-1350 1343 1342 0
-1350 1343 129 0
-1344 1351 0
-1343 -129 1351 0
-1351 1344 1343 0
-1351 1344 129 0
-1345 1352 0
-143 1352 0
-1352 1345 143 0
-1346 1353 0
-1345 -143 1353 0
-1353 1346 1345 0
-1353 1346 143 0
-1347 1354 0
-1346 -143 1354 0
-1354 1347 1346 0
-1354 1347 143 0
-1348 1355 0
-1347 -143 1355 0
-1355 1348 1347 0
-1355 1348 143 0
-1349 1356 0
-1348 -143 1356 0
-1356 1349 1348 0
-1356 1349 143 0
-1350 1357 0
-1349 -143 1357 0
-1357 1350 1349 0
-1357 1350 143 0
-1351 1358 0
-1350 -143 1358 0
-1358 1351 1350 0
-1358 1351 143 0
-1352 1359 0
-157 1359 0
-1359 1352 157 0
-1353 1360 0
-1352 -157 1360 0
-1360 1353 1352 0
-1360 1353 157 0
-1354 1361 0
-1353 -157 1361 0
-1361 1354 1353 0
-1361 1354 157 0
-1355 1362 0
-1354 -157 1362 0
-1362 1355 1354 0
-1362 1355 157 0
-1356 1363 0
-1355 -157 1363 0
-1363 1356 1355 0
-1363 1356 157 0
-1357 1364 0
-1356 -157 1364 0
-1364 1357 1356 0
-1364 1357 157 0
-1358 1365 0
-1357 -157 1365 0
-1365 1358 1357 0
-1365 1358 157 0
1364 0
-1365 0
-4 1366 0
-1366 4 0
-1366 1367 0
-18 1367 0
-1367 1366 18 0
-1366 -18 1368 0
-1368 1366 0
-1368 18 0
-1367 1369 0
-32 1369 0
-1369 1367 32 0
-1368 1370 0
-1367 -32 1370 0
-1370 1368 1367 0
-1370 1368 32 0
-1368 -32 1371 0
-1371 1368 0
-1371 32 0
-1369 1372 0
-46 1372 0
-1372 1369 46 0
-1370 1373 0
-1369 -46 1373 0
-1373 1370 1369 0
-1373 1370 46 0
-1371 1374 0
-1370 -46 1374 0
-1374 1371 1370 0
-1374 1371 46 0
-1371 -46 1375 0
-1375 1371 0
-1375 46 0
-1372 1376 0
-60 1376 0
-1376 1372 60 0
-1373 1377 0
-1372 -60 1377 0
-1377 1373 1372 0
-1377 1373 60 0
-1374 1378 0
-1373 -60 1378 0
-1378 1374 1373 0
-1378 1374 60 0
-1375 1379 0
-1374 -60 1379 0
-1379 1375 1374 0
-1379 1375 60 0
-1375 -60 1380 0
-1380 1375 0
-1380 60 0
-1376 1381 0
-74 1381 0
-1381 1376 74 0
-1377 1382 0
-1376 -74 1382 0
-1382 1377 1376 0
-1382 1377 74 0
-1378 1383 0
-1377 -74 1383 0
-1383 1378 1377 0
-1383 1378 74 0
-1379 1384 0
-1378 -74 1384 0
-1384 1379 1378 0
-1384 1379 74 0
-1380 1385 0
-1379 -74 1385 0
-1385 1380 1379 0
-1385 1380 74 0
-1380 -74 1386 0
-1386 1380 0
-1386 74 0
-1381 1387 0
-88 1387 0
-1387 1381 88 0
-1382 1388 0
-1381 -88 1388 0
-1388 1382 1381 0
-1388 1382 88 0
-1383 1389 0
-1382 -88 1389 0
-1389 1383 1382 0
-1389 1383 88 0
-1384 1390 0
-1383 -88 1390 0
-1390 1384 1383 0
-1390 1384 88 0
-1385 1391 0
-1384 -88 1391 0
-1391 1385 1384 0
-1391 1385 88 0
-1386 1392 0
-1385 -88 1392 0
-1392 1386 1385 0
-1392 1386 88 0
-1386 -88 1393 0
-1393 1386 0
-1393 88 0
-1387 1394 0
-102 1394 0
-1394 1387 102 0
-1388 1395 0
-1387 -102 1395 0
-1395 1388 1387 0
-1395 1388 102 0
-1389 1396 0
-1388 -102 1396 0
-1396 1389 1388 0
-1396 1389 102 0
-1390 1397 0
-1389 -102 1397 0
-1397 1390 1389 0
-1397 1390 102 0
-1391 1398 0
-1390 -102 1398 0
-1398 1391 1390 0
-1398 1391 102 0
-1392 1399 0
-1391 -102 1399 0
-1399 1392 1391 0
-1399 1392 102 0
-1393 1400 0
-1392 -102 1400 0
-1400 1393 1392 0
-1400 1393 102 0
-1394 1401 0
-116 1401 0
-1401 1394 116 0
-1395 1402 0
-1394 -116 1402 0
-1402 1395 1394 0
-1402 1395 116 0
-1396 1403 0
-1395 -116 1403 0
-1403 1396 1395 0
-1403 1396 116 0
-1397 1404 0
-1396 -116 1404 0
-1404 1397 1396 0
-1404 1397 116 0
-1398 1405 0
-1397 -116 1405 0
-1405 1398 1397 0
-1405 1398 116 0
-1399 1406 0
-1398 -116 1406 0
-1406 1399 1398 0
-1406 1399 116 0
-1400 1407 0
-1399 -116 1407 0
-1407 1400 1399 0
-1407 1400 116 0
-1401 1408 0
-130 1408 0
-1408 1401 130 0
-1402 1409 0
-1401 -130 1409 0
-1409 1402 1401 0
-1409 1402 130 0
-1403 1410 0
-1402 -130 1410 0
-1410 1403 1402 0
-1410 1403 130 0
-1404 1411 0
-1403 -130 1411 0
-1411 1404 1403 0
-1411 1404 130 0
-1405 1412 0
-1404 -130 1412 0
-1412 1405 1404 0
-1412 1405 130 0
-1406 1413 0
-1405 -130 1413 0
-1413 1406 1405 0
-1413 1406 130 0
-1407 1414 0
-1406 -130 1414 0
-1414 1407 1406 0
-1414 1407 130 0
-1408 1415 0
-144 1415 0
-1415 1408 144 0
-1409 1416 0
-1408 -144 1416 0
-1416 1409 1408 0
-1416 1409 144 0
-1410 1417 0
-1409 -144 1417 0
-1417 1410 1409 0
-1417 1410 144 0
-1411 1418 0
-1410 -144 1418 0
-1418 1411 1410 0
-1418 1411 144 0
-1412 1419 0
-1411 -144 1419 0
-1419 1412 1411 0
-1419 1412 144 0
-1413 1420 0
-1412 -144 1420 0
-1420 1413 1412 0
-1420 1413 144 0
-1414 1421 0
-1413 -144 1421 0
-1421 1414 1413 0
-1421 1414 144 0
-1415 1422 0
-158 1422 0
-1422 1415 158 0
-1416 1423 0
-1415 -158 1423 0
-1423 1416 1415 0
-1423 1416 158 0
-1417 1424 0
-1416 -158 1424 0
-1424 1417 1416 0
-1424 1417 158 0
-1418 1425 0
-1417 -158 1425 0
-1425 1418 1417 0
-1425 1418 158 0
-1419 1426 0
-1418 -158 1426 0
-1426 1419 1418 0
-1426 1419 158 0
-1420 1427 0
-1419 -158 1427 0
-1427 1420 1419 0
-1427 1420 158 0
-1421 1428 0
-1420 -158 1428 0
-1428 1421 1420 0
-1428 1421 158 0
1427 0
-1428 0
-5 1429 0
-1429 5 0
-1429 1430 0
-19 1430 0
-1430 1429 19 0
-1429 -19 1431 0
-1431 1429 0
-1431 19 0
-1430 1432 0
-33 1432 0
-1432 1430 33 0
-1431 1433 0
-1430 -33 1433 0
-1433 1431 1430 0
-1433 1431 33 0
-1431 -33 1434 0
-1434 1431 0
-1434 33 0
-1432 1435 0
-47 1435 0
-1435 1432 47 0
-1433 1436 0
-1432 -47 1436 0
-1436 1433 1432 0
-1436 1433 47 0
-1434 1437 0
-1433 -47 1437 0
-1437 1434 1433 0
-1437 1434 47 0
-1434 -47 1438 0
-1438 1434 0
-1438 47 0
-1435 1439 0
-61 1439 0
-1439 1435 61 0
-1436 1440 0
-1435 -61 1440 0
-1440 1436 1435 0
-1440 1436 61 0
-1437 1441 0
-1436 -61 1441 0
-1441 1437 1436 0
-1441 1437 61 0
-1438 1442 0
-1437 -61 1442 0
-1442 1438 1437 0
-1442 1438 61 0
-1438 -61 1443 0
-1443 1438 0
-1443 61 0
-1439 1444 0
-75 1444 0
-1444 1439 75 0
-1440 1445 0
-1439 -75 1445 0
-1445 1440 1439 0
-1445 1440 75 0
-1441 1446 0
-1440 -75 1446 0
-1446 1441 1440 0
-1446 1441 75 0
-1442 1447 0
-1441 -75 1447 0
-1447 1442 1441 0
-1447 1442 75 0
-1443 1448 0
-1442 -75 1448 0
-1448 1443 1442 0
-1448 1443 75 0
-1443 -75 1449 0
-1449 1443 0
-1449 75 0
-1444 1450 0
-89 1450 0
-1450 1444 89 0
-1445 1451 0
-1444 -89 1451 0
-1451 1445 1444 0
-1451 1445 89 0
-1446 1452 0
-1445 -89 1452 0
-1452 1446 1445 0
-1452 1446 89 0
-1447 1453 0
-1446 -89 1453 0
-1453 1447 1446 0
-1453 1447 89 0
-1448 1454 0
-1447 -89 1454 0
-1454 1448 1447 0
-1454 1448 89 0
-1449 1455 0
-1448 -89 1455 0
-1455 1449 1448 0
-1455 1449 89 0
-1449 -89 1456 0
-1456 1449 0
-1456 89 0
-1450 1457 0
-103 1457 0
-1457 1450 103 0
-1451 1458 0
-1450 -103 1458 0
-1458 1451 1450 0
-1458 1451 103 0
-1452 1459 0
-1451 -103 1459 0
-1459 1452 1451 0
-1459 1452 103 0
-1453 1460 0
-1452 -103 1460 0
-1460 1453 1452 0
-1460 1453 103 0
-1454 1461 0
-1453 -103 1461 0
-1461 1454 1453 0
-1461 1454 103 0
-1455 1462 0
-1454 -103 1462 0
-1462 1455 1454 0
-1462 1455 103 0
-1456 1463 0
-1455 -103 1463 0
-1463 1456 1455 0
-1463 1456 103 0
-1457 1464 0
-117 1464 0
-1464 1457 117 0
-1458 1465 0
-1457 -117 1465 0
-1465 1458 1457 0
-1465 1458 117 0
-1459 1466 0
-1458 -117 1466 0
-1466 1459 1458 0
-1466 1459 117 0
-1460 1467 0
-1459 -117 1467 0
-1467 1460 1459 0
-1467 1460 117 0
-1461 1468 0
-1460 -117 1468 0
-1468 1461 1460 0
-1468 1461 117 0
-1462 1469 0
-1461 -117 1469 0
-1469 1462 1461 0
-1469 1462 117 0
-1463 1470 0
-1462 -117 1470 0
-1470 1463 1462 0
-1470 1463 117 0
-1464 1471 0
-131 1471 0
-1471 1464 131 0
-1465 1472 0
-1464 -131 1472 0
-1472 1465 1464 0
-1472 1465 131 0
-1466 1473 0
-1465 -131 1473 0
-1473 1466 1465 0
-1473 1466 131 0
-1467 1474 0
-1466 -131 1474 0
-1474 1467 1466 0
-1474 1467 131 0
-1468 1475 0
-1467 -131 1475 0
-1475 1468 1467 0
-1475 1468 131 0
-1469 1476 0
-1468 -131 1476 0
-1476 1469 1468 0
-1476 1469 131 0
-1470 1477 0
-1469 -131 1477 0
-1477 1470 1469 0
-1477 1470 131 0
-1471 1478 0
-145 1478 0
-1478 1471 145 0
-1472 1479 0
-1471 -145 1479 0
-1479 1472 1471 0
-1479 1472 145 0
-1473 1480 0
-1472 -145 1480 0
-1480 1473 1472 0
-1480 1473 145 0
-1474 1481 0
-1473 -145 1481 0
-1481 1474 1473 0
-1481 1474 145 0
-1475 1482 0
-1474 -145 1482 0
-1482 1475 1474 0
-1482 1475 145 0
-1476 1483 0
-1475 -145 1483 0
-1483 1476 1475 0
-1483 1476 145 0
-1477 1484 0
-1476 -145 1484 0
-1484 1477 1476 0
-1484 1477 145 0
-1478 1485 0
-159 1485 0
-1485 1478 159 0
-1479 1486 0
-1478 -159 1486 0
-1486 1479 1478 0
-1486 1479 159 0
-1480 1487 0
-1479 -159 1487 0
-1487 1480 1479 0
-1487 1480 159 0
-1481 1488 0
-1480 -159 1488 0
-1488 1481 1480 0
-1488 1481 159 0
-1482 1489 0
-1481 -159 1489 0
-1489 1482 1481 0
-1489 1482 159 0
-1483 1490 0
-1482 -159 1490 0
-1490 1483 1482 0
-1490 1483 159 0
-1484 1491 0
-1483 -159 1491 0
-1491 1484 1483 0
-1491 1484 159 0
1490 0
-1491 0
-6 1492 0
-1492 6 0
-1492 1493 0
-20 1493 0
-1493 1492 20 0
-1492 -20 1494 0
-1494 1492 0
-1494 20 0
-1493 1495 0
-34 1495 0
-1495 1493 34 0
-1494 1496 0
-1493 -34 1496 0
-1496 1494 1493 0
-1496 1494 34 0
-1494 -34 1497 0
-1497 1494 0
-1497 34 0
-1495 1498 0
-48 1498 0
-1498 1495 48 0
-1496 1499 0
-1495 -48 1499 0
-1499 1496 1495 0
-1499 1496 48 0
-1497 1500 0
-1496 -48 1500 0
-1500 1497 1496 0
-1500 1497 48 0
-1497 -48 1501 0
-1501 1497 0
-1501 48 0
-1498 1502 0
-62 1502 0
-1502 1498 62 0
-1499 1503 0
-1498 -62 1503 0
-1503 1499 1498 0
-1503 1499 62 0
-1500 1504 0
-1499 -62 1504 0
-1504 1500 1499 0
-1504 1500 62 0
-1501 1505 0
-1500 -62 1505 0
-1505 1501 1500 0
-1505 1501 62 0
-1501 -62 1506 0
-1506 1501 0
-1506 62 0
-1502 1507 0
-76 1507 0
-1507 1502 76 0
-1503 1508 0
-1502 -76 1508 0
-1508 1503 1502 0
-1508 1503 76 0
-1504 1509 0
-1503 -76 1509 0
-1509 1504 1503 0
-1509 1504 76 0
-1505 1510 0
-1504 -76 1510 0
-1510 1505 1504 0
-1510 1505 76 0
-1506 1511 0
-1505 -76 1511 0
-1511 1506 1505 0
-1511 1506 76 0
-1506 -76 1512 0
-1512 1506 0
-1512 76 0
-1507 1513 0
-90 1513 0
-1513 1507 90 0
-1508 1514 0
-1507 -90 1514 0
-1514 1508 1507 0
-1514 1508 90 0
-1509 1515 0
-1508 -90 1515 0
-1515 1509 1508 0
-1515 1509 90 0
-1510 1516 0
-1509 -90 1516 0
-1516 1510 1509 0
-1516 1510 90 0
-1511 1517 0
-1510 -90 1517 0
-1517 1511 1510 0
-1517 1511 90 0
-1512 1518 0
-1511 -90 1518 0
-1518 1512 1511 0
-1518 1512 90 0
-1512 -90 1519 0
-1519 1512 0
-1519 90 0
-1513 1520 0
-104 1520 0
-1520 1513 104 0
-1514 1521 0
-1513 -104 1521 0
-1521 1514 1513 0
-1521 1514 104 0
-1515 1522 0
-1514 -104 1522 0
-1522 1515 1514 0
-1522 1515 104 0
-1516 1523 0
-1515 -104 1523 0
-1523 1516 1515 0
-1523 1516 104 0
-1517 1524 0
-1516 -104 1524 0
-1524 1517 1516 0
-1524 1517 104 0
-1518 1525 0
-1517 -104 1525 0
-1525 1518 1517 0
-1525 1518 104 0
-1519 1526 0
-1518 -104 1526 0
-1526 1519 1518 0
-1526 1519 104 0
-1520 1527 0
-118 1527 0
-1527 1520 118 0
-1521 1528 0
-1520 -118 1528 0
-1528 1521 1520 0
-1528 1521 118 0
-1522 1529 0
-1521 -118 1529 0
-1529 1522 1521 0
-1529 1522 118 0
-1523 1530 0
-1522 -118 1530 0
-1530 1523 1522 0
-1530 1523 118 0
-1524 1531 0
-1523 -118 1531 0
-1531 1524 1523 0
-1531 1524 118 0
-1525 1532 0
-1524 -118 1532 0
-1532 1525 1524 0
-1532 1525 118 0
-1526 1533 0
-1525 -118 1533 0
-1533 1526 1525 0
-1533 1526 118 0
-1527 1534 0
-132 1534 0
-1534 1527 132 0
-1528 1535 0
-1527 -132 1535 0
-1535 1528 1527 0
-1535 1528 132 0
-1529 1536 0
-1528 -132 1536 0
-1536 1529 1528 0
-1536 1529 132 0
-1530 1537 0
-1529 -132 1537 0
-1537 1530 1529 0
-1537 1530 132 0
-1531 1538 0
-1530 -132 1538 0
-1538 1531 1530 0
-1538 1531 132 0
-1532 1539 0
-1531 -132 1539 0
-1539 1532 1531 0
-1539 1532 132 0
-1533 1540 0
-1532 -132 1540 0
-1540 1533 1532 0
-1540 1533 132 0
-1534 1541 0
-146 1541 0
-1541 1534 146 0
-1535 1542 0
-1534 -146 1542 0
-1542 1535 1534 0
-1542 1535 146 0
-1536 1543 0
-1535 -146 1543 0
-1543 1536 1535 0
-1543 1536 146 0
-1537 1544 0
-1536 -146 1544 0
-1544 1537 1536 0
-1544 1537 146 0
-1538 1545 0
-1537 -146 1545 0
-1545 1538 1537 0
-1545 1538 146 0
-1539 1546 0
-1538 -146 1546 0
-1546 1539 1538 0
-1546 1539 146 0
-1540 1547 0
-1539 -146 1547 0
-1547 1540 1539 0
-1547 1540 146 0
-1541 1548 0
-160 1548 0
-1548 1541 160 0
-1542 1549 0
-1541 -160 1549 0
-1549 1542 1541 0
-1549 1542 160 0
-1543 1550 0
-1542 -160 1550 0
-1550 1543 1542 0
-1550 1543 160 0
-1544 1551 0
-1543 -160 1551 0
-1551 1544 1543 0
-1551 1544 160 0
-1545 1552 0
-1544 -160 1552 0
-1552 1545 1544 0
-1552 1545 160 0
-1546 1553 0
-1545 -160 1553 0
-1553 1546 1545 0
-1553 1546 160 0
-1547 1554 0
-1546 -160 1554 0
-1554 1547 1546 0
-1554 1547 160 0
1553 0
-1554 0
-7 1555 0
-1555 7 0
-1555 1556 0
-21 1556 0
-1556 1555 21 0
-1555 -21 1557 0
-1557 1555 0
-1557 21 0
-1556 1558 0
-35 1558 0
-1558 1556 35 0
-1557 1559 0
-1556 -35 1559 0
-1559 1557 1556 0
-1559 1557 35 0
-1557 -35 1560 0
-1560 1557 0
-1560 35 0
-1558 1561 0
-49 1561 0
-1561 1558 49 0
-1559 1562 0
-1558 -49 1562 0
-1562 1559 1558 0
-1562 1559 49 0
-1560 1563 0
-1559 -49 1563 0
-1563 1560 1559 0
-1563 1560 49 0
-1560 -49 1564 0
-1564 1560 0
-1564 49 0
-1561 1565 0
-63 1565 0
-1565 1561 63 0
-1562 1566 0
-1561 -63 1566 0
-1566 1562 1561 0
-1566 1562 63 0
-1563 1567 0
-1562 -63 1567 0
-1567 1563 1562 0
-1567 1563 63 0
-1564 1568 0
-1563 -63 1568 0
-1568 1564 1563 0
-1568 1564 63 0
-1564 -63 1569 0
-1569 1564 0
-1569 63 0
-1565 1570 0
-77 1570 0
-1570 1565 77 0
-1566 1571 0
-1565 -77 1571 0
-1571 1566 1565 0
-1571 1566 77 0
-1567 1572 0
-1566 -77 1572 0
-1572 1567 1566 0
-1572 1567 77 0
-1568 1573 0
-1567 -77 1573 0
-1573 1568 1567 0
-1573 1568 77 0
-1569 1574 0
-1568 -77 1574 0
-1574 1569 1568 0
-1574 1569 77 0
-1569 -77 1575 0
-1575 1569 0
-1575 77 0
-1570 1576 0
-91 1576 0
-1576 1570 91 0
-1571 1577 0
-1570 -91 1577 0
-1577 1571 1570 0
-1577 1571 91 0
-1572 1578 0
-1571 -91 1578 0
-1578 1572 1571 0
-1578 1572 91 0
-1573 1579 0
-1572 -91 1579 0
-1579 1573 1572 0
-1579 1573 91 0
-1574 1580 0
-1573 -91 1580 0
-1580 1574 1573 0
-1580 1574 91 0
-1575 1581 0
-1574 -91 1581 0
-1581 1575 1574 0
-1581 1575 91 0
-1575 -91 1582 0
-1582 1575 0
-1582 91 0
-1576 1583 0
-105 1583 0
-1583 1576 105 0
-1577 1584 0
-1576 -105 1584 0
-1584 1577 1576 0
-1584 1577 105 0
-1578 1585 0
-1577 -105 1585 0
-1585 1578 1577 0
-1585 1578 105 0
-1579 1586 0
-1578 -105 1586 0
-1586 1579 1578 0
-1586 1579 105 0
-1580 1587 0
-1579 -105 1587 0
-1587 1580 1579 0
-1587 1580 105 0
-1581 1588 0
-1580 -105 1588 0
-1588 1581 1580 0
-1588 1581 105 0
-1582 1589 0
-1581 -105 1589 0
-1589 1582 1581 0
-1589 1582 105 0
-1583 1590 0
-119 1590 0
-1590 1583 119 0
-1584 1591 0
-1583 -119 1591 0
-1591 1584 1583 0
-1591 1584 119 0
-1585 1592 0
-1584 -119 1592 0
-1592 1585 1584 0
-1592 1585 119 0
-1586 1593 0
-1585 -119 1593 0
-1593 1586 1585 0
-1593 1586 119 0
-1587 1594 0
-1586 -119 1594 0
-1594 1587 1586 0
-1594 1587 119 0
-1588 1595 0
-1587 -119 1595 0
-1595 1588 1587 0
-1595 1588 119 0
-1589 1596 0
-1588 -119 1596 0
-1596 1589 1588 0
-1596 1589 119 0
-1590 1597 0
-133 1597 0
-1597 1590 133 0
-1591 1598 0
-1590 -133 1598 0
-1598 1591 1590 0
-1598 1591 133 0
-1592 1599 0
-1591 -133 1599 0
-1599 1592 1591 0
-1599 1592 133 0
-1593 1600 0
-1592 -133 1600 0
-1600 1593 1592 0
-1600 1593 133 0
-1594 1601 0
-1593 -133 1601 0
-1601 1594 1593 0
-1601 1594 133 0
-1595 1602 0
-1594 -133 1602 0
-1602 1595 1594 0
-1602 1595 133 0
-1596 1603 0
-1595 -133 1603 0
-1603 1596 1595 0
-1603 1596 133 0
-1597 1604 0
-147 1604 0
-1604 1597 147 0
-1598 1605 0
-1597 -147 1605 0
-1605 1598 1597 0
-1605 1598 147 0
-1599 1606 0
-1598 -147 1606 0
-1606 1599 1598 0
-1606 1599 147 0
-1600 1607 0
-1599 -147 1607 0
-1607 1600 1599 0
-1607 1600 147 0
-1601 1608 0
-1600 -147 1608 0
-1608 1601 1600 0
-1608 1601 147 0
-1602 1609 0
-1601 -147 1609 0
-1609 1602 1601 0
-1609 1602 147 0
-1603 1610 0
-1602 -147 1610 0
-1610 1603 1602 0
-1610 1603 147 0
-1604 1611 0
-161 1611 0
-1611 1604 161 0
-1605 1612 0
-1604 -161 1612 0
-1612 1605 1604 0
-1612 1605 161 0
-1606 1613 0
-1605 -161 1613 0
-1613 1606 1605 0
-1613 1606 161 0
-1607 1614 0
-1606 -161 1614 0
-1614 1607 1606 0
-1614 1607 161 0
-1608 1615 0
-1607 -161 1615 0
-1615 1608 1607 0
-1615 1608 161 0
-1609 1616 0
-1608 -161 1616 0
-1616 1609 1608 0
-1616 1609 161 0
-1610 1617 0
-1609 -161 1617 0
-1617 1610 1609 0
-1617 1610 161 0
1616 0
-1617 0
-8 1618 0
-1618 8 0
-1618 1619 0
-22 1619 0
-1619 1618 22 0
-1618 -22 1620 0
-1620 1618 0
-1620 22 0
-1619 1621 0
-36 1621 0
-1621 1619 36 0
-1620 1622 0
-1619 -36 1622 0
-1622 1620 1619 0
-1622 1620 36 0
-1620 -36 1623 0
-1623 1620 0
-1623 36 0
-1621 1624 0
-50 1624 0
-1624 1621 50 0
-1622 1625 0
-1621 -50 1625 0
-1625 1622 1621 0
-1625 1622 50 0
-1623 1626 0
-1622 -50 1626 0
-1626 1623 1622 0
-1626 1623 50 0
-1623 -50 1627 0
-1627 1623 0
-1627 50 0
-1624 1628 0
-64 1628 0
-1628 1624 64 0
-1625 1629 0
-1624 -64 1629 0
-1629 1625 1624 0
-1629 1625 64 0
-1626 1630 0
-1625 -64 1630 0
-1630 1626 1625 0
-1630 1626 64 0
-1627 1631 0
-1626 -64 1631 0
-1631 1627 1626 0
-1631 1627 64 0
-1627 -64 1632 0
-1632 1627 0
-1632 64 0
-1628 1633 0
-78 1633 0
-1633 1628 78 0
-1629 1634 0
-1628 -78 1634 0
-1634 1629 1628 0
-1634 1629 78 0
-1630 1635 0
-1629 -78 1635 0
-1635 1630 1629 0
-1635 1630 78 0
-1631 1636 0
-1630 -78 1636 0
-1636 1631 1630 0
-1636 1631 78 0
-1632 1637 0
-1631 -78 1637 0
-1637 1632 1631 0
-1637 1632 78 0
-1632 -78 1638 0
-1638 1632 0
-1638 78 0
-1633 1639 0
-92 1639 0
-1639 1633 92 0
-1634 1640 0
-1633 -92 1640 0
-1640 1634 1633 0
-1640 1634 92 0
-1635 1641 0
-1634 -92 1641 0
-1641 1635 1634 0
-1641 1635 92 0
-1636 1642 0
-1635 -92 1642 0
-1642 1636 1635 0
-1642 1636 92 0
-1637 1643 0
-1636 -92 1643 0
-1643 1637 1636 0
-1643 1637 92 0
-1638 1644 0
-1637 -92 1644 0
-1644 1638 1637 0
-1644 1638 92 0
-1638 -92 1645 0
-1645 1638 0
-1645 92 0
-1639 1646 0
-106 1646 0
-1646 1639 106 0
-1640 1647 0
-1639 -106 1647 0
-1647 1640 1639 0
-1647 1640 106 0
-1641 1648 0
-1640 -106 1648 0
-1648 1641 1640 0
-1648 1641 106 0
-1642 1649 0
-1641 -106 1649 0
-1649 1642 1641 0
-1649 1642 106 0
-1643 1650 0
-1642 -106 1650 0
-1650 1643 1642 0
-1650 1643 106 0
-1644 1651 0
-1643 -106 1651 0
-1651 1644 1643 0
-1651 1644 106 0
-1645 1652 0
-1644 -106 1652 0
-1652 1645 1644 0
-1652 1645 106 0
-1646 1653 0
-120 1653 0
-1653 1646 120 0
-1647 1654 0
-1646 -120 1654 0
-1654 1647 1646 0
-1654 1647 120 0
-1648 1655 0
-1647 -120 1655 0
-1655 1648 1647 0
-1655 1648 120 0
-1649 1656 0
-1648 -120 1656 0
-1656 1649 1648 0
-1656 1649 120 0
-1650 1657 0
-1649 -120 1657 0
-1657 1650 1649 0
-1657 1650 120 0
-1651 1658 0
-1650 -120 1658 0
-1658 1651 1650 0
-1658 1651 120 0
-1652 1659 0
-1651 -120 1659 0
-1659 1652 1651 0
-1659 1652 120 0
-1653 1660 0
-134 1660 0
-1660 1653 134 0
-1654 1661 0
-1653 -134 1661 0
-1661 1654 1653 0
-1661 1654 134 0
-1655 1662 0
-1654 -134 1662 0
-1662 1655 1654 0
-1662 1655 134 0
-1656 1663 0
-1655 -134 1663 0
-1663 1656 1655 0
-1663 1656 134 0
-1657 1664 0
-1656 -134 1664 0
-1664 1657 1656 0
-1664 1657 134 0
-1658 1665 0
-1657 -134 1665 0
-1665 1658 1657 0
-1665 1658 134 0
-1659 1666 0
-1658 -134 1666 0
-1666 1659 1658 0
-1666 1659 134 0
-1660 1667 0
-148 1667 0
-1667 1660 148 0
-1661 1668 0
-1660 -148 1668 0
-1668 1661 1660 0
-1668 1661 148 0
-1662 1669 0
-1661 -148 1669 0
-1669 1662 1661 0
-1669 1662 148 0
-1663 1670 0
-1662 -148 1670 0
-1670 1663 1662 0
-1670 1663 148 0
-1664 1671 0
-1663 -148 1671 0
-1671 1664 1663 0
-1671 1664 148 0
-1665 1672 0
-1664 -148 1672 0
-1672 1665 1664 0
-1672 1665 148 0
-1666 1673 0
-1665 -148 1673 0
-1673 1666 1665 0
-1673 1666 148 0
-1667 1674 0
-162 1674 0
-1674 1667 162 0
-1668 1675 0
-1667 -162 1675 0
-1675 1668 1667 0
-1675 1668 162 0
-1669 1676 0
-1668 -162 1676 0
-1676 1669 1668 0
-1676 1669 162 0
-1670 1677 0
-1669 -162 1677 0
-1677 1670 1669 0
-1677 1670 162 0
-1671 1678 0
-1670 -162 1678 0
-1678 1671 1670 0
-1678 1671 162 0
-1672 1679 0
-1671 -162 1679 0
-1679 1672 1671 0
-1679 1672 162 0
-1673 1680 0
-1672 -162 1680 0
-1680 1673 1672 0
-1680 1673 162 0
1679 0
-1680 0
-9 1681 0
-1681 9 0
-1681 1682 0
-23 1682 0
-1682 1681 23 0
-1681 -23 1683 0
-1683 1681 0
-1683 23 0
-1682 1684 0
-37 1684 0
-1684 1682 37 0
-1683 1685 0
-1682 -37 1685 0
-1685 1683 1682 0
-1685 1683 37 0
-1683 -37 1686 0
-1686 1683 0
-1686 37 0
-1684 1687 0
-51 1687 0
-1687 1684 51 0
-1685 1688 0
-1684 -51 1688 0
-1688 1685 1684 0
-1688 1685 51 0
-1686 1689 0
-1685 -51 1689 0
-1689 1686 1685 0
-1689 1686 51 0
-1686 -51 1690 0
-1690 1686 0
-1690 51 0
-1687 1691 0
-65 1691 0
-1691 1687 65 0
-1688 1692 0
-1687 -65 1692 0
-1692 1688 1687 0
-1692 1688 65 0
-1689 1693 0
-1688 -65 1693 0
-1693 1689 1688 0
-1693 1689 65 0
-1690 1694 0
-1689 -65 1694 0
-1694 1690 1689 0
-1694 1690 65 0
-1690 -65 1695 0
-1695 1690 0
-1695 65 0
-1691 1696 0
-79 1696 0
-1696 1691 79 0
-1692 1697 0
-1691 -79 1697 0
-1697 1692 1691 0
-1697 1692 79 0
-1693 1698 0
-1692 -79 1698 0
-1698 1693 1692 0
-1698 1693 79 0
-1694 1699 0
-1693 -79 1699 0
-1699 1694 1693 0
-1699 1694 79 0
-1695 1700 0
-1694 -79 1700 0
-1700 1695 1694 0
-1700 1695 79 0
-1695 -79 1701 0
-1701 1695 0
-1701 79 0
-1696 1702 0
-93 1702 0
-1702 1696 93 0
-1697 1703 0
-1696 -93 1703 0
-1703 1697 1696 0
-1703 1697 93 0
-1698 1704 0
-1697 -93 1704 0
-1704 1698 1697 0
-1704 1698 93 0
-1699 1705 0
-1698 -93 1705 0
-1705 1699 1698 0
-1705 1699 93 0
-1700 1706 0
-1699 -93 1706 0
-1706 1700 1699 0
-1706 1700 93 0
-1701 1707 0
-1700 -93 1707 0
-1707 1701 1700 0
-1707 1701 93 0
-1701 -93 1708 0
-1708 1701 0
-1708 93 0
-1702 1709 0
-107 1709 0
-1709 1702 107 0
-1703 1710 0
-1702 -107 1710 0
-1710 1703 1702 0
-1710 1703 107 0
-1704 1711 0
-1703 -107 1711 0
-1711 1704 1703 0
-1711 1704 107 0
-1705 1712 0
-1704 -107 1712 0
-1712 1705 1704 0
-1712 1705 107 0
-1706 1713 0
-1705 -107 1713 0
-1713 1706 1705 0
-1713 1706 107 0
-1707 1714 0
-1706 -107 1714 0
-1714 1707 1706 0
-1714 1707 107 0
-1708 1715 0
-1707 -107 1715 0
-1715 1708 1707 0
-1715 1708 107 0
-1709 1716 0
-121 1716 0
-1716 1709 121 0
-1710 1717 0
-1709 -121 1717 0
-1717 1710 1709 0
-1717 1710 121 0
-1711 1718 0
-1710 -121 1718 0
-1718 1711 1710 0
-1718 1711 121 0
-1712 1719 0
-1711 -121 1719 0
-1719 1712 1711 0
-1719 1712 121 0
-1713 1720 0
-1712 -121 1720 0
-1720 1713 1712 0
-1720 1713 121 0
-1714 1721 0
-1713 -121 1721 0
-1721 1714 1713 0
-1721 1714 121 0
-1715 1722 0
-1714 -121 1722 0
-1722 1715 1714 0
-1722 1715 121 0
-1716 1723 0
-135 1723 0
-1723 1716 135 0
-1717 1724 0
-1716 -135 1724 0
-1724 1717 1716 0
-1724 1717 135 0
-1718 1725 0
-1717 -135 1725 0
-1725 1718 1717 0
-1725 1718 135 0
-1719 1726 0
-1718 -135 1726 0
-1726 1719 1718 0
-1726 1719 135 0
-1720 1727 0
-1719 -135 1727 0
-1727 1720 1719 0
-1727 1720 135 0
-1721 1728 0
-1720 -135 1728 0
-1728 1721 1720 0
-1728 1721 135 0
-1722 1729 0
-1721 -135 1729 0
-1729 1722 1721 0
-1729 1722 135 0
-1723 1730 0
-149 1730 0
-1730 1723 149 0
-1724 1731 0
-1723 -149 1731 0
-1731 1724 1723 0
-1731 1724 149 0
-1725 1732 0
-1724 -149 1732 0
-1732 1725 1724 0
-1732 1725 149 0
-1726 1733 0
-1725 -149 1733 0
-1733 1726 1725 0
-1733 1726 149 0
-1727 1734 0
-1726 -149 1734 0
-1734 1727 1726 0
-1734 1727 149 0
-1728 1735 0
-1727 -149 1735 0
-1735 1728 1727 0
-1735 1728 149 0
-1729 1736 0
-1728 -149 1736 0
-1736 1729 1728 0
-1736 1729 149 0
-1730 1737 0
-163 1737 0
-1737 1730 163 0
-1731 1738 0
-1730 -163 1738 0
-1738 1731 1730 0
-1738 1731 163 0
-1732 1739 0
-1731 -163 1739 0
-1739 1732 1731 0
-1739 1732 163 0
-1733 1740 0
-1732 -163 1740 0
-1740 1733 1732 0
-1740 1733 163 0
-1734 1741 0
-1733 -163 1741 0
-1741 1734 1733 0
-1741 1734 163 0
-1735 1742 0
-1734 -163 1742 0
-1742 1735 1734 0
-1742 1735 163 0
-1736 1743 0
-1735 -163 1743 0
-1743 1736 1735 0
-1743 1736 163 0
1742 0
-1743 0
-10 1744 0
-1744 10 0
-1744 1745 0
-24 1745 0
-1745 1744 24 0
-1744 -24 1746 0
-1746 1744 0
-1746 24 0
-1745 1747 0
-38 1747 0
-1747 1745 38 0
-1746 1748 0
-1745 -38 1748 0
-1748 1746 1745 0
-1748 1746 38 0
-1746 -38 1749 0
-1749 1746 0
-1749 38 0
-1747 1750 0
-52 1750 0
-1750 1747 52 0
-1748 1751 0
-1747 -52 1751 0
-1751 1748 1747 0
-1751 1748 52 0
-1749 1752 0
-1748 -52 1752 0
-1752 1749 1748 0
-1752 1749 52 0
-1749 -52 1753 0
-1753 1749 0
-1753 52 0
-1750 1754 0
-66 1754 0
-1754 1750 66 0
-1751 1755 0
-1750 -66 1755 0
-1755 1751 1750 0
-1755 1751 66 0
-1752 1756 0
-1751 -66 1756 0
-1756 1752 1751 0
-1756 1752 66 0
-1753 1757 0
-1752 -66 1757 0
-1757 1753 1752 0
-1757 1753 66 0
-1753 -66 1758 0
-1758 1753 0
-1758 66 0
-1754 1759 0
-80 1759 0
-1759 1754 80 0
-1755 1760 0
-1754 -80 1760 0
-1760 1755 1754 0
-1760 1755 80 0
-1756 1761 0
-1755 -80 1761 0
-1761 1756 1755 0
-1761 1756 80 0
-1757 1762 0
-1756 -80 1762 0
-1762 1757 1756 0
-1762 1757 80 0
-1758 1763 0
-1757 -80 1763 0
-1763 1758 1757 0
-1763 1758 80 0
-1758 -80 1764 0
-1764 1758 0
-1764 80 0
-1759 1765 0
-94 1765 0
-1765 1759 94 0
-1760 1766 0
-1759 -94 1766 0
-1766 1760 1759 0
-1766 1760 94 0
-1761 1767 0
-1760 -94 1767 0
-1767 1761 1760 0
-1767 1761 94 0
-1762 1768 0
-1761 -94 1768 0
-1768 1762 1761 0
-1768 1762 94 0
-1763 1769 0
-1762 -94 1769 0
-1769 1763 1762 0
-1769 1763 94 0
-1764 1770 0
-1763 -94 1770 0
-1770 1764 1763 0
-1770 1764 94 0
-1764 -94 1771 0
-1771 1764 0
-1771 94 0
-1765 1772 0
-108 1772 0
-1772 1765 108 0
-1766 1773 0
-1765 -108 1773 0
-1773 1766 1765 0
-1773 1766 108 0
-1767 1774 0
-1766 -108 1774 0
-1774 1767 1766 0
-1774 1767 108 0
-1768 1775 0
-1767 -108 1775 0
-1775 1768 1767 0
-1775 1768 108 0
-1769 1776 0
-1768 -108 1776 0
-1776 1769 1768 0
-1776 1769 108 0
-1770 1777 0
-1769 -108 1777 0
-1777 1770 1769 0
-1777 1770 108 0
-1771 1778 0
-1770 -108 1778 0
-1778 1771 1770 0
-1778 1771 108 0
-1772 1779 0
-122 1779 0
-1779 1772 122 0
-1773 1780 0
-1772 -122 1780 0
-1780 1773 1772 0
-1780 1773 122 0
-1774 1781 0
-1773 -122 1781 0
-1781 1774 1773 0
-1781 1774 122 0
-1775 1782 0
-1774 -122 1782 0
-1782 1775 1774 0
-1782 1775 122 0
-1776 1783 0
-1775 -122 1783 0
-1783 1776 1775 0
-1783 1776 122 0
-1777 1784 0
-1776 -122 1784 0
-1784 1777 1776 0
-1784 1777 122 0
-1778 1785 0
-1777 -122 1785 0
-1785 1778 1777 0
-1785 1778 122 0
-1779 1786 0
-136 1786 0
-1786 1779 136 0
-1780 1787 0
-1779 -136 1787 0
-1787 1780 1779 0
-1787 1780 136 0
-1781 1788 0
-1780 -136 1788 0
-1788 1781 1780 0
-1788 1781 136 0
-1782 1789 0
-1781 -136 1789 0
-1789 1782 1781 0
-1789 1782 136 0
-1783 1790 0
-1782 -136 1790 0
-1790 1783 1782 0
-1790 1783 136 0
-1784 1791 0
-1783 -136 1791 0
-1791 1784 1783 0
-1791 1784 136 0
-1785 1792 0
-1784 -136 1792 0
-1792 1785 1784 0
-1792 1785 136 0
-1786 1793 0
-150 1793 0
-1793 1786 150 0
-1787 1794 0
-1786 -150 1794 0
-1794 1787 1786 0
-1794 1787 150 0
-1788 1795 0
-1787 -150 1795 0
-1795 1788 1787 0
-1795 1788 150 0
-1789 1796 0
-1788 -150 1796 0
-1796 1789 1788 0
-1796 1789 150 0
-1790 1797 0
-1789 -150 1797 0
-1797 1790 1789 0
-1797 1790 150 0
-1791 1798 0
-1790 -150 1798 0
-1798 1791 1790 0
-1798 1791 150 0
-1792 1799 0
-1791 -150 1799 0
-1799 1792 1791 0
-1799 1792 150 0
-1793 1800 0
-164 1800 0
-1800 1793 164 0
-1794 1801 0
-1793 -164 1801 0
-1801 1794 1793 0
-1801 1794 164 0
-1795 1802 0
-1794 -164 1802 0
-1802 1795 1794 0
-1802 1795 164 0
-1796 1803 0
-1795 -164 1803 0
-1803 1796 1795 0
-1803 1796 164 0
-1797 1804 0
-1796 -164 1804 0
-1804 1797 1796 0
-1804 1797 164 0
-1798 1805 0
-1797 -164 1805 0
-1805 1798 1797 0
-1805 1798 164 0
-1799 1806 0
-1798 -164 1806 0
-1806 1799 1798 0
-1806 1799 164 0
1805 0
-1806 0
-11 1807 0
-1807 11 0
-1807 1808 0
-25 1808 0
-1808 1807 25 0
-1807 -25 1809 0
-1809 1807 0
-1809 25 0
-1808 1810 0
-39 1810 0
-1810 1808 39 0
-1809 1811 0
-1808 -39 1811 0
-1811 1809 1808 0
-1811 1809 39 0
-1809 -39 1812 0
-1812 1809 0
-1812 39 0
-1810 1813 0
-53 1813 0
-1813 1810 53 0
-1811 1814 0
-1810 -53 1814 0
-1814 1811 1810 0
-1814 1811 53 0
-1812 1815 0
-1811 -53 1815 0
-1815 1812 1811 0
-1815 1812 53 0
-1812 -53 1816 0
-1816 1812 0
-1816 53 0
-1813 1817 0
-67 1817 0
-1817 1813 67 0
-1814 1818 0
-1813 -67 1818 0
-1818 1814 1813 0
-1818 1814 67 0
-1815 1819 0
-1814 -67 1819 0
-1819 1815 1814 0
-1819 1815 67 0
-1816 1820 0
-1815 -67 1820 0
-1820 1816 1815 0
-1820 1816 67 0
-1816 -67 1821 0
-1821 1816 0
-1821 67 0
-1817 1822 0
-81 1822 0
-1822 1817 81 0
-1818 1823 0
-1817 -81 1823 0
-1823 1818 1817 0
-1823 1818 81 0
-1819 1824 0
-1818 -81 1824 0
-1824 1819 1818 0
-1824 1819 81 0
-1820 1825 0
-1819 -81 1825 0
-1825 1820 1819 0
-1825 1820 81 0
-1821 1826 0
-1820 -81 1826 0
-1826 1821 1820 0
-1826 1821 81 0
-1821 -81 1827 0
-1827 1821 0
-1827 81 0
-1822 1828 0
-95 1828 0
-1828 1822 95 0
-1823 1829 0
-1822 -95 1829 0
-1829 1823 1822 0
-1829 1823 95 0
-1824 1830 0
-1823 -95 1830 0
-1830 1824 1823 0
-1830 1824 95 0
-1825 1831 0
-1824 -95 1831 0
-1831 1825 1824 0
-1831 1825 95 0
-1826 1832 0
-1825 -95 1832 0
-1832 1826 1825 0
-1832 1826 95 0
-1827 1833 0
-1826 -95 1833 0
-1833 1827 1826 0
-1833 1827 95 0
-1827 -95 1834 0
-1834 1827 0
-1834 95 0
-1828 1835 0
-109 1835 0
-1835 1828 109 0
-1829 1836 0
-1828 -109 1836 0
-1836 1829 1828 0
-1836 1829 109 0
-1830 1837 0
-1829 -109 1837 0
-1837 1830 1829 0
-1837 1830 109 0
-1831 1838 0
-1830 -109 1838 0
-1838 1831 1830 0
-1838 1831 109 0
-1832 1839 0
-1831 -109 1839 0
-1839 1832 1831 0
-1839 1832 109 0
-1833 1840 0
-1832 -109 1840 0
-1840 1833 1832 0
-1840 1833 109 0
-1834 1841 0
-1833 -109 1841 0
-1841 1834 1833 0
-1841 1834 109 0
-1835 1842 0
-123 1842 0
-1842 1835 123 0
-1836 1843 0
-1835 -123 1843 0
-1843 1836 1835 0
-1843 1836 123 0
-1837 1844 0
-1836 -123 1844 0
-1844 1837 1836 0
-1844 1837 123 0
-1838 1845 0
-1837 -123 1845 0
-1845 1838 1837 0
-1845 1838 123 0
-1839 1846 0
-1838 -123 1846 0
-1846 1839 1838 0
-1846 1839 123 0
-1840 1847 0
-1839 -123 1847 0
-1847 1840 1839 0
-1847 1840 123 0
-1841 1848 0
-1840 -123 1848 0
-1848 1841 1840 0
-1848 1841 123 0
-1842 1849 0
-137 1849 0
-1849 1842 137 0
-1843 1850 0
-1842 -137 1850 0
-1850 1843 1842 0
-1850 1843 137 0
-1844 1851 0
-1843 -137 1851 0
-1851 1844 1843 0
-1851 1844 137 0
-1845 1852 0
-1844 -137 1852 0
-1852 1845 1844 0
-1852 1845 137 0
-1846 1853 0
-1845 -137 1853 0
-1853 1846 1845 0
-1853 1846 137 0
-1847 1854 0
-1846 -137 1854 0
-1854 1847 1846 0
-1854 1847 137 0
-1848 1855 0
-1847 -137 1855 0
-1855 1848 1847 0
-1855 1848 137 0
-1849 1856 0
-151 1856 0
-1856 1849 151 0
-1850 1857 0
-1849 -151 1857 0
-1857 1850 1849 0
-1857 1850 151 0
-1851 1858 0
-1850 -151 1858 0
-1858 1851 1850 0
-1858 1851 151 0
-1852 1859 0
-1851 -151 1859 0
-1859 1852 1851 0
-1859 1852 151 0
-1853 1860 0
-1852 -151 1860 0
-1860 1853 1852 0
-1860 1853 151 0
-1854 1861 0
-1853 -151 1861 0
-1861 1854 1853 0
-1861 1854 151 0
-1855 1862 0
-1854 -151 1862 0
-1862 1855 1854 0
-1862 1855 151 0
-1856 1863 0
-165 1863 0
-1863 1856 165 0
-1857 1864 0
-1856 -165 1864 0
-1864 1857 1856 0
-1864 1857 165 0
-1858 1865 0
-1857 -165 1865 0
-1865 1858 1857 0
-1865 1858 165 0
-1859 1866 0
-1858 -165 1866 0
-1866 1859 1858 0
-1866 1859 165 0
-1860 1867 0
-1859 -165 1867 0
-1867 1860 1859 0
-1867 1860 165 0
-1861 1868 0
-1860 -165 1868 0
-1868 1861 1860 0
-1868 1861 165 0
-1862 1869 0
-1861 -165 1869 0
-1869 1862 1861 0
-1869 1862 165 0
1868 0
-1869 0
-12 1870 0
-1870 12 0
-1870 1871 0
-26 1871 0
-1871 1870 26 0
-1870 -26 1872 0
-1872 1870 0
-1872 26 0
-1871 1873 0
-40 1873 0
-1873 1871 40 0
-1872 1874 0
-1871 -40 1874 0
-1874 1872 1871 0
-1874 1872 40 0
-1872 -40 1875 0
-1875 1872 0
-1875 40 0
-1873 1876 0
-54 1876 0
-1876 1873 54 0
-1874 1877 0
-1873 -54 1877 0
-1877 1874 1873 0
-1877 1874 54 0
-1875 1878 0
-1874 -54 1878 0
-1878 1875 1874 0
-1878 1875 54 0
-1875 -54 1879 0
-1879 1875 0
-1879 54 0
-1876 1880 0
-68 1880 0
-1880 1876 68 0
-1877 1881 0
-1876 -68 1881 0
-1881 1877 1876 0
-1881 1877 68 0
-1878 1882 0
-1877 -68 1882 0
-1882 1878 1877 0
-1882 1878 68 0
-1879 1883 0
-1878 -68 1883 0
-1883 1879 1878 0
-1883 1879 68 0
-1879 -68 1884 0
-1884 1879 0
-1884 68 0
-1880 1885 0
-82 1885 0
-1885 1880 82 0
-1881 1886 0
-1880 -82 1886 0
-1886 1881 1880 0
-1886 1881 82 0
-1882 1887 0
-1881 -82 1887 0
-1887 1882 1881 0
-1887 1882 82 0
-1883 1888 0
-1882 -82 1888 0
-1888 1883 1882 0
-1888 1883 82 0
-1884 1889 0
-1883 -82 1889 0
-1889 1884 1883 0
-1889 1884 82 0
-1884 -82 1890 0
-1890 1884 0
-1890 82 0
-1885 1891 0
-96 1891 0
-1891 1885 96 0
-1886 1892 0
-1885 -96 1892 0
-1892 1886 1885 0
-1892 1886 96 0
-1887 1893 0
-1886 -96 1893 0
-1893 1887 1886 0
-1893 1887 96 0
-1888 1894 0
-1887 -96 1894 0
-1894 1888 1887 0
-1894 1888 96 0
-1889 1895 0
-1888 -96 1895 0
-1895 1889 1888 0
-1895 1889 96 0
-1890 1896 0
-1889 -96 1896 0
-1896 1890 1889 0
-1896 1890 96 0
-1890 -96 1897 0
-1897 1890 0
-1897 96 0
-1891 1898 0
-110 1898 0
-1898 1891 110 0
-1892 1899 0
-1891 -110 1899 0
-1899 1892 1891 0
-1899 1892 110 0
-1893 1900 0
-1892 -110 1900 0
-1900 1893 1892 0
-1900 1893 110 0
-1894 1901 0
-1893 -110 1901 0
-1901 1894 1893 0
-1901 1894 110 0
-1895 1902 0
-1894 -110 1902 0
-1902 1895 1894 0
-1902 1895 110 0
-1896 1903 0
-1895 -110 1903 0
-1903 1896 1895 0
-1903 1896 110 0
-1897 1904 0
-1896 -110 1904 0
-1904 1897 1896 0
-1904 1897 110 0
-1898 1905 0
-124 1905 0
-1905 1898 124 0
-1899 1906 0
-1898 -124 1906 0
-1906 1899 1898 0
-1906 1899 124 0
-1900 1907 0
-1899 -124 1907 0
-1907 1900 1899 0
-1907 1900 124 0
-1901 1908 0
-1900 -124 1908 0
-1908 1901 1900 0
-1908 1901 124 0
-1902 1909 0
-1901 -124 1909 0
-1909 1902 1901 0
-1909 1902 124 0
-1903 1910 0
-1902 -124 1910 0
-1910 1903 1902 0
-1910 1903 124 0
-1904 1911 0
-1903 -124 1911 0
-1911 1904 1903 0
-1911 1904 124 0
-1905 1912 0
-138 1912 0
-1912 1905 138 0
-1906 1913 0
-1905 -138 1913 0
-1913 1906 1905 0
-1913 1906 138 0
-1907 1914 0
-1906 -138 1914 0
-1914 1907 1906 0
-1914 1907 138 0
-1908 1915 0
-1907 -138 1915 0
-1915 1908 1907 0
-1915 1908 138 0
-1909 1916 0
-1908 -138 1916 0
-1916 1909 1908 0
-1916 1909 138 0
-1910 1917 0
-1909 -138 1917 0
-1917 1910 1909 0
-1917 1910 138 0
-1911 1918 0
-1910 -138 1918 0
-1918 1911 1910 0
-1918 1911 138 0
-1912 1919 0
-152 1919 0
-1919 1912 152 0
-1913 1920 0
-1912 -152 1920 0
-1920 1913 1912 0
-1920 1913 152 0
-1914 1921 0
-1913 -152 1921 0
-1921 1914 1913 0
-1921 1914 152 0
-1915 1922 0
-1914 -152 1922 0
-1922 1915 1914 0
-1922 1915 152 0
-1916 1923 0
-1915 -152 1923 0
-1923 1916 1915 0
-1923 1916 152 0
-1917 1924 0
-1916 -152 1924 0
-1924 1917 1916 0
-1924 1917 152 0
-1918 1925 0
-1917 -152 1925 0
-1925 1918 1917 0
-1925 1918 152 0
-1919 1926 0
-166 1926 0
-1926 1919 166 0
-1920 1927 0
-1919 -166 1927 0
-1927 1920 1919 0
-1927 1920 166 0
-1921 1928 0
-1920 -166 1928 0
-1928 1921 1920 0
-1928 1921 166 0
-1922 1929 0
-1921 -166 1929 0
-1929 1922 1921 0
-1929 1922 166 0
-1923 1930 0
-1922 -166 1930 0
-1930 1923 1922 0
-1930 1923 166 0
-1924 1931 0
-1923 -166 1931 0
-1931 1924 1923 0
-1931 1924 166 0
-1925 1932 0
-1924 -166 1932 0
-1932 1925 1924 0
-1932 1925 166 0
1931 0
-1932 0
-13 1933 0
-1933 13 0
-1933 1934 0
-27 1934 0
-1934 1933 27 0
-1933 -27 1935 0
-1935 1933 0
-1935 27 0
-1934 1936 0
-41 1936 0
-1936 1934 41 0
-1935 1937 0
-1934 -41 1937 0
-1937 1935 1934 0
-1937 1935 41 0
-1935 -41 1938 0
-1938 1935 0
-1938 41 0
-1936 1939 0
-55 1939 0
-1939 1936 55 0
-1937 1940 0
-1936 -55 1940 0
-1940 1937 1936 0
-1940 1937 55 0
-1938 1941 0
-1937 -55 1941 0
-1941 1938 1937 0
-1941 1938 55 0
-1938 -55 1942 0
-1942 1938 0
-1942 55 0
-1939 1943 0
-69 1943 0
-1943 1939 69 0
-1940 1944 0
-1939 -69 1944 0
-1944 1940 1939 0
-1944 1940 69 0
-1941 1945 0
-1940 -69 1945 0
-1945 1941 1940 0
-1945 1941 69 0
-1942 1946 0
-1941 -69 1946 0
-1946 1942 1941 0
-1946 1942 69 0
-1942 -69 1947 0
-1947 1942 0
-1947 69 0
-1943 1948 0
-83 1948 0
-1948 1943 83 0
-1944 1949 0
-1943 -83 1949 0
-1949 1944 1943 0
-1949 1944 83 0
-1945 1950 0
-1944 -83 1950 0
-1950 1945 1944 0
-1950 1945 83 0
-1946 1951 0
-1945 -83 1951 0
-1951 1946 1945 0
-1951 1946 83 0
-1947 1952 0
-1946 -83 1952 0
-1952 1947 1946 0
-1952 1947 83 0
-1947 -83 1953 0
-1953 1947 0
-1953 83 0
-1948 1954 0
-97 1954 0
-1954 1948 97 0
-1949 1955 0
-1948 -97 1955 0
-1955 1949 1948 0
-1955 1949 97 0
-1950 1956 0
-1949 -97 1956 0
-1956 1950 1949 0
-1956 1950 97 0
-1951 1957 0
-1950 -97 1957 0
-1957 1951 1950 0
-1957 1951 97 0
-1952 1958 0
-1951 -97 1958 0
-1958 1952 1951 0
-1958 1952 97 0
-1953 1959 0
-1952 -97 1959 0
-1959 1953 1952 0
-1959 1953 97 0
-1953 -97 1960 0
-1960 1953 0
-1960 97 0
-1954 1961 0
-111 1961 0
-1961 1954 111 0
-1955 1962 0
-1954 -111 1962 0
-1962 1955 1954 0
-1962 1955 111 0
-1956 1963 0
-1955 -111 1963 0
-1963 1956 1955 0
-1963 1956 111 0
-1957 1964 0
-1956 -111 1964 0
-1964 1957 1956 0
-1964 1957 111 0
-1958 1965 0
-1957 -111 1965 0
-1965 1958 1957 0
-1965 1958 111 0
-1959 1966 0
-1958 -111 1966 0
-1966 1959 1958 0
-1966 1959 111 0
-1960 1967 0
-1959 -111 1967 0
-1967 1960 1959 0
-1967 1960 111 0
-1961 1968 0
-125 1968 0
-1968 1961 125 0
-1962 1969 0
-1961 -125 1969 0
-1969 1962 1961 0
-1969 1962 125 0
-1963 1970 0
-1962 -125 1970 0
-1970 1963 1962 0
-1970 1963 125 0
-1964 1971 0
-1963 -125 1971 0
-1971 1964 1963 0
-1971 1964 125 0
-1965 1972 0
-1964 -125 1972 0
-1972 1965 1964 0
-1972 1965 125 0
-1966 1973 0
-1965 -125 1973 0
-1973 1966 1965 0
-1973 1966 125 0
-1967 1974 0
-1966 -125 1974 0
-1974 1967 1966 0
-1974 1967 125 0
-1968 1975 0
-139 1975 0
-1975 1968 139 0
-1969 1976 0
-1968 -139 1976 0
-1976 1969 1968 0
-1976 1969 139 0
-1970 1977 0
-1969 -139 1977 0
-1977 1970 1969 0
-1977 1970 139 0
-1971 1978 0
-1970 -139 1978 0
-1978 1971 1970 0
-1978 1971 139 0
-1972 1979 0
-1971 -139 1979 0
-1979 1972 1971 0
-1979 1972 139 0
-1973 1980 0
-1972 -139 1980 0
-1980 1973 1972 0
-1980 1973 139 0
-1974 1981 0
-1973 -139 1981 0
-1981 1974 1973 0
-1981 1974 139 0
-1975 1982 0
-153 1982 0
-1982 1975 153 0
-1976 1983 0
-1975 -153 1983 0
-1983 1976 1975 0
-1983 1976 153 0
-1977 1984 0
-1976 -153 1984 0
-1984 1977 1976 0
-1984 1977 153 0
-1978 1985 0
-1977 -153 1985 0
-1985 1978 1977 0
-1985 1978 153 0
-1979 1986 0
-1978 -153 1986 0
-1986 1979 1978 0
-1986 1979 153 0
-1980 1987 0
-1979 -153 1987 0
-1987 1980 1979 0
-1987 1980 153 0
-1981 1988 0
-1980 -153 1988 0
-1988 1981 1980 0
-1988 1981 153 0
-1982 1989 0
-167 1989 0
-1989 1982 167 0
-1983 1990 0
-1982 -167 1990 0
-1990 1983 1982 0
-1990 1983 167 0
-1984 1991 0
-1983 -167 1991 0
-1991 1984 1983 0
-1991 1984 167 0
-1985 1992 0
-1984 -167 1992 0
-1992 1985 1984 0
-1992 1985 167 0
-1986 1993 0
-1985 -167 1993 0
-1993 1986 1985 0
-1993 1986 167 0
-1987 1994 0
-1986 -167 1994 0
-1994 1987 1986 0
-1994 1987 167 0
-1988 1995 0
-1987 -167 1995 0
-1995 1988 1987 0
-1995 1988 167 0
1994 0
-1995 0
-14 1996 0
-1996 14 0
-1996 1997 0
-28 1997 0
-1997 1996 28 0
-1996 -28 1998 0
-1998 1996 0
-1998 28 0
-1997 1999 0
-42 1999 0
-1999 1997 42 0
-1998 2000 0
-1997 -42 2000 0
-2000 1998 1997 0
-2000 1998 42 0
-1998 -42 2001 0
-2001 1998 0
-2001 42 0
-1999 2002 0
-56 2002 0
-2002 1999 56 0
-2000 2003 0
-1999 -56 2003 0
-2003 2000 1999 0
-2003 2000 56 0
-2001 2004 0
-2000 -56 2004 0
-2004 2001 2000 0
-2004 2001 56 0
-2001 -56 2005 0
-2005 2001 0
-2005 56 0
-2002 2006 0
-70 2006 0
-2006 2002 70 0
-2003 2007 0
-2002 -70 2007 0
-2007 2003 2002 0
-2007 2003 70 0
-2004 2008 0
-2003 -70 2008 0
-2008 2004 2003 0
-2008 2004 70 0
-2005 2009 0
-2004 -70 2009 0
-2009 2005 2004 0
-2009 2005 70 0
-2005 -70 2010 0
-2010 2005 0
-2010 70 0
-2006 2011 0
-84 2011 0
-2011 2006 84 0
-2007 2012 0
-2006 -84 2012 0
-2012 2007 2006 0
-2012 2007 84 0
-2008 2013 0
-2007 -84 2013 0
-2013 2008 2007 0
-2013 2008 84 0
-2009 2014 0
-2008 -84 2014 0
-2014 2009 2008 0
-2014 2009 84 0
-2010 2015 0
-2009 -84 2015 0
-2015 2010 2009 0
-2015 2010 84 0
-2010 -84 2016 0
-2016 2010 0
-2016 84 0
-2011 2017 0
-98 2017 0
-2017 2011 98 0
-2012 2018 0
-2011 -98 2018 0
-2018 2012 2011 0
-2018 2012 98 0
-2013 2019 0
-2012 -98 2019 0
-2019 2013 2012 0
-2019 2013 98 0
-2014 2020 0
-2013 -98 2020 0
-2020 2014 2013 0
-2020 2014 98 0
-2015 2021 0
-2014 -98 2021 0
-2021 2015 2014 0
-2021 2015 98 0
-2016 2022 0
-2015 -98 2022 0
-2022 2016 2015 0
-2022 2016 98 0
-2016 -98 2023 0
-2023 2016 0
-2023 98 0
-2017 2024 0
-112 2024 0
-2024 2017 112 0
-2018 2025 0
-2017 -112 2025 0
-2025 2018 2017 0
-2025 2018 112 0
-2019 2026 0
-2018 -112 2026 0
-2026 2019 2018 0
-2026 2019 112 0
-2020 2027 0
-2019 -112 2027 0
-2027 2020 2019 0
-2027 2020 112 0
-2021 2028 0
-2020 -112 2028 0
-2028 2021 2020 0
-2028 2021 112 0
-2022 2029 0
-2021 -112 2029 0
-2029 2022 2021 0
-2029 2022 112 0
-2023 2030 0
-2022 -112 2030 0
-2030 2023 2022 0
-2030 2023 112 0
-2024 2031 0
-126 2031 0
-2031 2024 126 0
-2025 2032 0
-2024 -126 2032 0
-2032 2025 2024 0
-2032 2025 126 0
-2026 2033 0
-2025 -126 2033 0
-2033 2026 2025 0
-2033 2026 126 0
-2027 2034 0
-2026 -126 2034 0
-2034 2027 2026 0
-2034 2027 126 0
-2028 2035 0
-2027 -126 2035 0
-2035 2028 2027 0
-2035 2028 126 0
-2029 2036 0
-2028 -126 2036 0
-2036 2029 2028 0
-2036 2029 126 0
-2030 2037 0
-2029 -126 2037 0
-2037 2030 2029 0
-2037 2030 126 0
-2031 2038 0
-140 2038 0
-2038 2031 140 0
-2032 2039 0
-2031 -140 2039 0
-2039 2032 2031 0
-2039 2032 140 0
-2033 2040 0
-2032 -140 2040 0
-2040 2033 2032 0
-2040 2033 140 0
-2034 2041 0
-2033 -140 2041 0
-2041 2034 2033 0
-2041 2034 140 0
-2035 2042 0
-2034 -140 2042 0
-2042 2035 2034 0
-2042 2035 140 0
-2036 2043 0
-2035 -140 2043 0
-2043 2036 2035 0
-2043 2036 140 0
-2037 2044 0
-2036 -140 2044 0
-2044 2037 2036 0
-2044 2037 140 0
-2038 2045 0
-154 2045 0
-2045 2038 154 0
-2039 2046 0
-2038 -154 2046 0
-2046 2039 2038 0
-2046 2039 154 0
-2040 2047 0
-2039 -154 2047 0
-2047 2040 2039 0
-2047 2040 154 0
-2041 2048 0
-2040 -154 2048 0
-2048 2041 2040 0
-2048 2041 154 0
-2042 2049 0
-2041 -154 2049 0
-2049 2042 2041 0
-2049 2042 154 0
-2043 2050 0
-2042 -154 2050 0
-2050 2043 2042 0
-2050 2043 154 0
-2044 2051 0
-2043 -154 2051 0
-2051 2044 2043 0
-2051 2044 154 0
-2045 2052 0
-168 2052 0
-2052 2045 168 0
-2046 2053 0
-2045 -168 2053 0
-2053 2046 2045 0
-2053 2046 168 0
-2047 2054 0
-2046 -168 2054 0
-2054 2047 2046 0
-2054 2047 168 0
-2048 2055 0
-2047 -168 2055 0
-2055 2048 2047 0
-2055 2048 168 0
-2049 2056 0
-2048 -168 2056 0
-2056 2049 2048 0
-2056 2049 168 0
-2050 2057 0
-2049 -168 2057 0
-2057 2050 2049 0
-2057 2050 168 0
-2051 2058 0
-2050 -168 2058 0
-2058 2051 2050 0
-2058 2051 168 0
2057 0
-2058 0
-2059 1 0
-2059 15 0
2059 -1 -15 0
-2060 2 0
-2060 16 0
2060 -2 -16 0
-2061 3 0
-2061 17 0
2061 -3 -17 0
-2062 4 0
-2062 18 0
2062 -4 -18 0
-2063 5 0
-2063 19 0
2063 -5 -19 0
-2064 6 0
-2064 20 0
2064 -6 -20 0
-2065 7 0
-2065 21 0
2065 -7 -21 0
-2066 8 0
-2066 22 0
2066 -8 -22 0
-2067 9 0
-2067 23 0
2067 -9 -23 0
-2068 10 0
-2068 24 0
2068 -10 -24 0
-2069 11 0
-2069 25 0
2069 -11 -25 0
-2070 12 0
-2070 26 0
2070 -12 -26 0
-2071 13 0
-2071 27 0
2071 -13 -27 0
-2072 14 0
-2072 28 0
2072 -14 -28 0
-2059 2073 0
-2073 2059 0
-2073 2074 0
-2060 2074 0
-2074 2073 2060 0
-2073 -2060 2075 0
-2075 2073 0
-2075 2060 0
-2074 2076 0
-2061 2076 0
-2076 2074 2061 0
-2075 2077 0
-2074 -2061 2077 0
-2077 2075 2074 0
-2077 2075 2061 0
-2075 -2061 2078 0
-2078 2075 0
-2078 2061 0
-2076 2079 0
-2062 2079 0
-2079 2076 2062 0
-2077 2080 0
-2076 -2062 2080 0
-2080 2077 2076 0
-2080 2077 2062 0
-2078 2081 0
-2077 -2062 2081 0
-2081 2078 2077 0
-2081 2078 2062 0
-2079 2082 0
-2063 2082 0
-2082 2079 2063 0
-2080 2083 0
-2079 -2063 2083 0
-2083 2080 2079 0
-2083 2080 2063 0
-2081 2084 0
-2080 -2063 2084 0
-2084 2081 2080 0
-2084 2081 2063 0
-2082 2085 0
-2064 2085 0
-2085 2082 2064 0
-2083 2086 0
-2082 -2064 2086 0
-2086 2083 2082 0
-2086 2083 2064 0
-2084 2087 0
-2083 -2064 2087 0
-2087 2084 2083 0
-2087 2084 2064 0
-2085 2088 0
-2065 2088 0
-2088 2085 2065 0
-2086 2089 0
-2085 -2065 2089 0
-2089 2086 2085 0
-2089 2086 2065 0
-2087 2090 0
-2086 -2065 2090 0
-2090 2087 2086 0
-2090 2087 2065 0
-2088 2091 0
-2066 2091 0
-2091 2088 2066 0
-2089 2092 0
-2088 -2066 2092 0
-2092 2089 2088 0
-2092 2089 2066 0
-2090 2093 0
-2089 -2066 2093 0
-2093 2090 2089 0
-2093 2090 2066 0
-2091 2094 0
-2067 2094 0
-2094 2091 2067 0
-2092 2095 0
-2091 -2067 2095 0
-2095 2092 2091 0
-2095 2092 2067 0
-2093 2096 0
-2092 -2067 2096 0
-2096 2093 2092 0
-2096 2093 2067 0
-2094 2097 0
-2068 2097 0
-2097 2094 2068 0
-2095 2098 0
-2094 -2068 2098 0
-2098 2095 2094 0
-2098 2095 2068 0
-2096 2099 0
-2095 -2068 2099 0
-2099 2096 2095 0
-2099 2096 2068 0
-2097 2100 0
-2069 2100 0
-2100 2097 2069 0
-2098 2101 0
-2097 -2069 2101 0
-2101 2098 2097 0
-2101 2098 2069 0
-2099 2102 0
-2098 -2069 2102 0
-2102 2099 2098 0
-2102 2099 2069 0
-2100 2103 0
-2070 2103 0
-2103 2100 2070 0
-2101 2104 0
-2100 -2070 2104 0
-2104 2101 2100 0
-2104 2101 2070 0
-2102 2105 0
-2101 -2070 2105 0
-2105 2102 2101 0
-2105 2102 2070 0
-2103 2106 0
-2071 2106 0
-2106 2103 2071 0
-2104 2107 0
-2103 -2071 2107 0
-2107 2104 2103 0
-2107 2104 2071 0
-2105 2108 0
-2104 -2071 2108 0
-2108 2105 2104 0
-2108 2105 2071 0
-2106 2109 0
-2072 2109 0
-2109 2106 2072 0
-2107 2110 0
-2106 -2072 2110 0
-2110 2107 2106 0
-2110 2107 2072 0
-2108 2111 0
-2107 -2072 2111 0
-2111 2108 2107 0
-2111 2108 2072 0
2111 0
-2112 1 0
-2112 29 0
2112 -1 -29 0
-2113 2 0
-2113 30 0
2113 -2 -30 0
-2114 3 0
-2114 31 0
2114 -3 -31 0
-2115 4 0
-2115 32 0
2115 -4 -32 0
-2116 5 0
-2116 33 0
2116 -5 -33 0
-2117 6 0
-2117 34 0
2117 -6 -34 0
-2118 7 0
-2118 35 0
2118 -7 -35 0
-2119 8 0
-2119 36 0
2119 -8 -36 0
-2120 9 0
-2120 37 0
2120 -9 -37 0
-2121 10 0
-2121 38 0
2121 -10 -38 0
-2122 11 0
-2122 39 0
2122 -11 -39 0
-2123 12 0
-2123 40 0
2123 -12 -40 0
-2124 13 0
-2124 41 0
2124 -13 -41 0
-2125 14 0
-2125 42 0
2125 -14 -42 0
-2112 2126 0
-2126 2112 0
-2126 2127 0
-2113 2127 0
-2127 2126 2113 0
-2126 -2113 2128 0
-2128 2126 0
-2128 2113 0
-2127 2129 0
-2114 2129 0
-2129 2127 2114 0
-2128 2130 0
-2127 -2114 2130 0
-2130 2128 2127 0
-2130 2128 2114 0
-2128 -2114 2131 0
-2131 2128 0
-2131 2114 0
-2129 2132 0
-2115 2132 0
-2132 2129 2115 0
-2130 2133 0
-2129 -2115 2133 0
-2133 2130 2129 0
-2133 2130 2115 0
-2131 2134 0
-2130 -2115 2134 0
-2134 2131 2130 0
-2134 2131 2115 0
-2132 2135 0
-2116 2135 0
-2135 2132 2116 0
-2133 2136 0
-2132 -2116 2136 0
-2136 2133 2132 0
-2136 2133 2116 0
-2134 2137 0
-2133 -2116 2137 0
-2137 2134 2133 0
-2137 2134 2116 0
-2135 2138 0
-2117 2138 0
-2138 2135 2117 0
-2136 2139 0
-2135 -2117 2139 0
-2139 2136 2135 0
-2139 2136 2117 0
-2137 2140 0
-2136 -2117 2140 0
-2140 2137 2136 0
-2140 2137 2117 0
-2138 2141 0
-2118 2141 0
-2141 2138 2118 0
-2139 2142 0
-2138 -2118 2142 0
-2142 2139 2138 0
-2142 2139 2118 0
-2140 2143 0
-2139 -2118 2143 0
-2143 2140 2139 0
-2143 2140 2118 0
-2141 2144 0
-2119 2144 0
-2144 2141 2119 0
-2142 2145 0
-2141 -2119 2145 0
-2145 2142 2141 0
-2145 2142 2119 0
-2143 2146 0
-2142 -2119 2146 0
-2146 2143 2142 0
-2146 2143 2119 0
-2144 2147 0
-2120 2147 0
-2147 2144 2120 0
-2145 2148 0
-2144 -2120 2148 0
-2148 2145 2144 0
-2148 2145 2120 0
-2146 2149 0
-2145 -2120 2149 0
-2149 2146 2145 0
-2149 2146 2120 0
-2147 2150 0
-2121 2150 0
-2150 2147 2121 0
-2148 2151 0
-2147 -2121 2151 0
-2151 2148 2147 0
-2151 2148 2121 0
-2149 2152 0
-2148 -2121 2152 0
-2152 2149 2148 0
-2152 2149 2121 0
-2150 2153 0
-2122 2153 0
-2153 2150 2122 0
-2151 2154 0
-2150 -2122 2154 0
-2154 2151 2150 0
-2154 2151 2122 0
-2152 2155 0
-2151 -2122 2155 0
-2155 2152 2151 0
-2155 2152 2122 0
-2153 2156 0
-2123 2156 0
-2156 2153 2123 0
-2154 2157 0
-2153 -2123 2157 0
-2157 2154 2153 0
-2157 2154 2123 0
-2155 2158 0
-2154 -2123 2158 0
-2158 2155 2154 0
-2158 2155 2123 0
-2156 2159 0
-2124 2159 0
-2159 2156 2124 0
-2157 2160 0
-2156 -2124 2160 0
-2160 2157 2156 0
-2160 2157 2124 0
-2158 2161 0
-2157 -2124 2161 0
-2161 2158 2157 0
-2161 2158 2124 0
-2159 2162 0
-2125 2162 0
-2162 2159 2125 0
-2160 2163 0
-2159 -2125 2163 0
-2163 2160 2159 0
-2163 2160 2125 0
-2161 2164 0
-2160 -2125 2164 0
-2164 2161 2160 0
-2164 2161 2125 0
2164 0
-2165 1 0
-2165 43 0
2165 -1 -43 0
-2166 2 0
-2166 44 0
2166 -2 -44 0
-2167 3 0
-2167 45 0
2167 -3 -45 0
-2168 4 0
-2168 46 0
2168 -4 -46 0
-2169 5 0
-2169 47 0
2169 -5 -47 0
-2170 6 0
-2170 48 0
2170 -6 -48 0
-2171 7 0
-2171 49 0
2171 -7 -49 0
-2172 8 0
-2172 50 0
2172 -8 -50 0
-2173 9 0
-2173 51 0
2173 -9 -51 0
-2174 10 0
-2174 52 0
2174 -10 -52 0
-2175 11 0
-2175 53 0
2175 -11 -53 0
-2176 12 0
-2176 54 0
2176 -12 -54 0
-2177 13 0
-2177 55 0
2177 -13 -55 0
-2178 14 0
-2178 56 0
2178 -14 -56 0
-2165 2179 0
-2179 2165 0
-2179 2180 0
-2166 2180 0
-2180 2179 2166 0
-2179 -2166 2181 0
-2181 2179 0
-2181 2166 0
-2180 2182 0
-2167 2182 0
-2182 2180 2167 0
-2181 2183 0
-2180 -2167 2183 0
-2183 2181 2180 0
-2183 2181 2167 0
-2181 -2167 2184 0
-2184 2181 0
-2184 2167 0
-2182 2185 0
-2168 2185 0
-2185 2182 2168 0
-2183 2186 0
-2182 -2168 2186 0
-2186 2183 2182 0
-2186 2183 2168 0
-2184 2187 0
-2183 -2168 2187 0
-2187 2184 2183 0
-2187 2184 2168 0
-2185 2188 0
-2169 2188 0
-2188 2185 2169 0
-2186 2189 0
-2185 -2169 2189 0
-2189 2186 2185 0
-2189 2186 2169 0
-2187 2190 0
-2186 -2169 2190 0
-2190 2187 2186 0
-2190 2187 2169 0
-2188 2191 0
-2170 2191 0
-2191 2188 2170 0
-2189 2192 0
-2188 -2170 2192 0
-2192 2189 2188 0
-2192 2189 2170 0
-2190 2193 0
-2189 -2170 2193 0
-2193 2190 2189 0
-2193 2190 2170 0
-2191 2194 0
-2171 2194 0
-2194 2191 2171 0
-2192 2195 0
-2191 -2171 2195 0
-2195 2192 2191 0
-2195 2192 2171 0
-2193 2196 0
-2192 -2171 2196 0
-2196 2193 2192 0
-2196 2193 2171 0
-2194 2197 0
-2172 2197 0
-2197 2194 2172 0
-2195 2198 0
-2194 -2172 2198 0
-2198 2195 2194 0
-2198 2195 2172 0
-2196 2199 0
-2195 -2172 2199 0
-2199 2196 2195 0
-2199 2196 2172 0
-2197 2200 0
-2173 2200 0
-2200 2197 2173 0
-2198 2201 0
-2197 -2173 2201 0
-2201 2198 2197 0
-2201 2198 2173 0
-2199 2202 0
-2198 -2173 2202 0
-2202 2199 2198 0
-2202 2199 2173 0
-2200 2203 0
-2174 2203 0
-2203 2200 2174 0
-2201 2204 0
-2200 -2174 2204 0
-2204 2201 2200 0
-2204 2201 2174 0
-2202 2205 0
-2201 -2174 2205 0
-2205 2202 2201 0
-2205 2202 2174 0
-2203 2206 0
-2175 2206 0
-2206 2203 2175 0
-2204 2207 0
-2203 -2175 2207 0
-2207 2204 2203 0
-2207 2204 2175 0
-2205 2208 0
-2204 -2175 2208 0
-2208 2205 2204 0
-2208 2205 2175 0
-2206 2209 0
-2176 2209 0
-2209 2206 2176 0
-2207 2210 0
-2206 -2176 2210 0
-2210 2207 2206 0
-2210 2207 2176 0
-2208 2211 0
-2207 -2176 2211 0
-2211 2208 2207 0
-2211 2208 2176 0
-2209 2212 0
-2177 2212 0
-2212 2209 2177 0
-2210 2213 0
-2209 -2177 2213 0
-2213 2210 2209 0
-2213 2210 2177 0
-2211 2214 0
-2210 -2177 2214 0
-2214 2211 2210 0
-2214 2211 2177 0
-2212 2215 0
-2178 2215 0
-2215 2212 2178 0
-2213 2216 0
-2212 -2178 2216 0
-2216 2213 2212 0
-2216 2213 2178 0
-2214 2217 0
-2213 -2178 2217 0
-2217 2214 2213 0
-2217 2214 2178 0
2217 0
-2218 1 0
-2218 57 0
2218 -1 -57 0
-2219 2 0
-2219 58 0
2219 -2 -58 0
-2220 3 0
-2220 59 0
2220 -3 -59 0
-2221 4 0
-2221 60 0
2221 -4 -60 0
-2222 5 0
-2222 61 0
2222 -5 -61 0
-2223 6 0
-2223 62 0
2223 -6 -62 0
-2224 7 0
-2224 63 0
2224 -7 -63 0
-2225 8 0
-2225 64 0
2225 -8 -64 0
-2226 9 0
-2226 65 0
2226 -9 -65 0
-2227 10 0
-2227 66 0
2227 -10 -66 0
-2228 11 0
-2228 67 0
2228 -11 -67 0
-2229 12 0
-2229 68 0
2229 -12 -68 0
-2230 13 0
-2230 69 0
2230 -13 -69 0
-2231 14 0
-2231 70 0
2231 -14 -70 0
-2218 2232 0
-2232 2218 0
-2232 2233 0
-2219 2233 0
-2233 2232 2219 0
-2232 -2219 2234 0
-2234 2232 0
-2234 2219 0
-2233 2235 0
-2220 2235 0
-2235 2233 2220 0
-2234 2236 0
-2233 -2220 2236 0
-2236 2234 2233 0
-2236 2234 2220 0
-2234 -2220 2237 0
-2237 2234 0
-2237 2220 0
-2235 2238 0
-2221 2238 0
-2238 2235 2221 0
-2236 2239 0
-2235 -2221 2239 0
-2239 2236 2235 0
-2239 2236 2221 0
-2237 2240 0
-2236 -2221 2240 0
-2240 2237 2236 0
-2240 2237 2221 0
-2238 2241 0
-2222 2241 0
-2241 2238 2222 0
-2239 2242 0
-2238 -2222 2242 0
-2242 2239 2238 0
-2242 2239 2222 0
-2240 2243 0
-2239 -2222 2243 0
-2243 2240 2239 0
-2243 2240 2222 0
-2241 2244 0
-2223 2244 0
-2244 2241 2223 0
-2242 2245 0
-2241 -2223 2245 0
-2245 2242 2241 0
-2245 2242 2223 0
-2243 2246 0
-2242 -2223 2246 0
-2246 2243 2242 0
-2246 2243 2223 0
-2244 2247 0
-2224 2247 0
-2247 2244 2224 0
-2245 2248 0
-2244 -2224 2248 0
-2248 2245 2244 0
-2248 2245 2224 0
-2246 2249 0
-2245 -2224 2249 0
-2249 2246 2245 0
-2249 2246 2224 0
-2247 2250 0
-2225 2250 0
-2250 2247 2225 0
-2248 2251 0
-2247 -2225 2251 0
-2251 2248 2247 0
-2251 2248 2225 0
-2249 2252 0
-2248 -2225 2252 0
-2252 2249 2248 0
-2252 2249 2225 0
-2250 2253 0
-2226 2253 0
-2253 2250 2226 0
-2251 2254 0
-2250 -2226 2254 0
-2254 2251 2250 0
-2254 2251 2226 0
-2252 2255 0
-2251 -2226 2255 0
-2255 2252 2251 0
-2255 2252 2226 0
-2253 2256 0
-2227 2256 0
-2256 2253 2227 0
-2254 2257 0
-2253 -2227 2257 0
-2257 2254 2253 0
-2257 2254 2227 0
-2255 2258 0
-2254 -2227 2258 0
-2258 2255 2254 0
-2258 2255 2227 0
-2256 2259 0
-2228 2259 0
-2259 2256 2228 0
-2257 2260 0
-2256 -2228 2260 0
-2260 2257 2256 0
-2260 2257 2228 0
-2258 2261 0
-2257 -2228 2261 0
-2261 2258 2257 0
-2261 2258 2228 0
-2259 2262 0
-2229 2262 0
-2262 2259 2229 0
-2260 2263 0
-2259 -2229 2263 0
-2263 2260 2259 0
-2263 2260 2229 0
-2261 2264 0
-2260 -2229 2264 0
-2264 2261 2260 0
-2264 2261 2229 0
-2262 2265 0
-2230 2265 0
-2265 2262 2230 0
-2263 2266 0
-2262 -2230 2266 0
-2266 2263 2262 0
-2266 2263 2230 0
-2264 2267 0
-2263 -2230 2267 0
-2267 2264 2263 0
-2267 2264 2230 0
-2265 2268 0
-2231 2268 0
-2268 2265 2231 0
-2266 2269 0
-2265 -2231 2269 0
-2269 2266 2265 0
-2269 2266 2231 0
-2267 2270 0
-2266 -2231 2270 0
-2270 2267 2266 0
-2270 2267 2231 0
2270 0
-2271 1 0
-2271 71 0
2271 -1 -71 0
-2272 2 0
-2272 72 0
2272 -2 -72 0
-2273 3 0
-2273 73 0
2273 -3 -73 0
-2274 4 0
-2274 74 0
2274 -4 -74 0
-2275 5 0
-2275 75 0
2275 -5 -75 0
-2276 6 0
-2276 76 0
2276 -6 -76 0
-2277 7 0
-2277 77 0
2277 -7 -77 0
-2278 8 0
-2278 78 0
2278 -8 -78 0
-2279 9 0
-2279 79 0
2279 -9 -79 0
-2280 10 0
-2280 80 0
2280 -10 -80 0
-2281 11 0
-2281 81 0
2281 -11 -81 0
-2282 12 0
-2282 82 0
2282 -12 -82 0
-2283 13 0
-2283 83 0
2283 -13 -83 0
-2284 14 0
-2284 84 0
2284 -14 -84 0
-2271 2285 0
-2285 2271 0
-2285 2286 0
-2272 2286 0
-2286 2285 2272 0
-2285 -2272 2287 0
-2287 2285 0
-2287 2272 0
-2286 2288 0
-2273 2288 0
-2288 2286 2273 0
-2287 2289 0
-2286 -2273 2289 0
-2289 2287 2286 0
-2289 2287 2273 0
-2287 -2273 2290 0
-2290 2287 0
-2290 2273 0
-2288 2291 0
-2274 2291 0
-2291 2288 2274 0
-2289 2292 0
-2288 -2274 2292 0
-2292 2289 2288 0
-2292 2289 2274 0
-2290 2293 0
-2289 -2274 2293 0
-2293 2290 2289 0
-2293 2290 2274 0
-2291 2294 0
-2275 2294 0
-2294 2291 2275 0
-2292 2295 0
-2291 -2275 2295 0
-2295 2292 2291 0
-2295 2292 2275 0
-2293 2296 0
-2292 -2275 2296 0
-2296 2293 2292 0
-2296 2293 2275 0
-2294 2297 0
-2276 2297 0
-2297 2294 2276 0
-2295 2298 0
-2294 -2276 2298 0
-2298 2295 2294 0
-2298 2295 2276 0
-2296 2299 0
-2295 -2276 2299 0
-2299 2296 2295 0
-2299 2296 2276 0
-2297 2300 0
-2277 2300 0
-2300 2297 2277 0
-2298 2301 0
-2297 -2277 2301 0
-2301 2298 2297 0
-2301 2298 2277 0
-2299 2302 0
-2298 -2277 2302 0
-2302 2299 2298 0
-2302 2299 2277 0
-2300 2303 0
-2278 2303 0
-2303 2300 2278 0
-2301 2304 0
-2300 -2278 2304 0
-2304 2301 2300 0
-2304 2301 2278 0
-2302 2305 0
-2301 -2278 2305 0
-2305 2302 2301 0
-2305 2302 2278 0
-2303 2306 0
-2279 2306 0
-2306 2303 2279 0
-2304 2307 0
-2303 -2279 2307 0
-2307 2304 2303 0
-2307 2304 2279 0
-2305 2308 0
-2304 -2279 2308 0
-2308 2305 2304 0
-2308 2305 2279 0
-2306 2309 0
-2280 2309 0
-2309 2306 2280 0
-2307 2310 0
-2306 -2280 2310 0
-2310 2307 2306 0
-2310 2307 2280 0
-2308 2311 0
-2307 -2280 2311 0
-2311 2308 2307 0
-2311 2308 2280 0
-2309 2312 0
-2281 2312 0
-2312 2309 2281 0
-2310 2313 0
-2309 -2281 2313 0
-2313 2310 2309 0
-2313 2310 2281 0
-2311 2314 0
-2310 -2281 2314 0
-2314 2311 2310 0
-2314 2311 2281 0
-2312 2315 0
-2282 2315 0
-2315 2312 2282 0
-2313 2316 0
-2312 -2282 2316 0
-2316 2313 2312 0
-2316 2313 2282 0
-2314 2317 0
-2313 -2282 2317 0
-2317 2314 2313 0
-2317 2314 2282 0
-2315 2318 0
-2283 2318 0
-2318 2315 2283 0
-2316 2319 0
-2315 -2283 2319 0
-2319 2316 2315 0
-2319 2316 2283 0
-2317 2320 0
-2316 -2283 2320 0
-2320 2317 2316 0
-2320 2317 2283 0
-2318 2321 0
-2284 2321 0
-2321 2318 2284 0
-2319 2322 0
-2318 -2284 2322 0
-2322 2319 2318 0
-2322 2319 2284 0
-2320 2323 0
-2319 -2284 2323 0
-2323 2320 2319 0
-2323 2320 2284 0
2323 0
-2324 1 0
-2324 85 0
2324 -1 -85 0
-2325 2 0
-2325 86 0
2325 -2 -86 0
-2326 3 0
-2326 87 0
2326 -3 -87 0
-2327 4 0
-2327 88 0
2327 -4 -88 0
-2328 5 0
-2328 89 0
2328 -5 -89 0
-2329 6 0
-2329 90 0
2329 -6 -90 0
-2330 7 0
-2330 91 0
2330 -7 -91 0
-2331 8 0
-2331 92 0
2331 -8 -92 0
-2332 9 0
-2332 93 0
2332 -9 -93 0
-2333 10 0
-2333 94 0
2333 -10 -94 0
-2334 11 0
-2334 95 0
2334 -11 -95 0
-2335 12 0
-2335 96 0
2335 -12 -96 0
-2336 13 0
-2336 97 0
2336 -13 -97 0
-2337 14 0
-2337 98 0
2337 -14 -98 0
-2324 2338 0
-2338 2324 0
-2338 2339 0
-2325 2339 0
-2339 2338 2325 0
-2338 -2325 2340 0
-2340 2338 0
-2340 2325 0
-2339 2341 0
-2326 2341 0
-2341 2339 2326 0
-2340 2342 0
-2339 -2326 2342 0
-2342 2340 2339 0
-2342 2340 2326 0
-2340 -2326 2343 0
-2343 2340 0
-2343 2326 0
-2341 2344 0
-2327 2344 0
-2344 2341 2327 0
-2342 2345 0
-2341 -2327 2345 0
-2345 2342 2341 0
-2345 2342 2327 0
-2343 2346 0
-2342 -2327 2346 0
-2346 2343 2342 0
-2346 2343 2327 0
-2344 2347 0
-2328 2347 0
-2347 2344 2328 0
-2345 2348 0
-2344 -2328 2348 0
-2348 2345 2344 0
-2348 2345 2328 0
-2346 2349 0
-2345 -2328 2349 0
-2349 2346 2345 0
-2349 2346 2328 0
-2347 2350 0
-2329 2350 0
-2350 2347 2329 0
-2348 2351 0
-2347 -2329 2351 0
-2351 2348 2347 0
-2351 2348 2329 0
-2349 2352 0
-2348 -2329 2352 0
-2352 2349 2348 0
-2352 2349 2329 0
-2350 2353 0
-2330 2353 0
-2353 2350 2330 0
-2351 2354 0
-2350 -2330 2354 0
-2354 2351 2350 0
-2354 2351 2330 0
-2352 2355 0
-2351 -2330 2355 0
-2355 2352 2351 0
-2355 2352 2330 0
-2353 2356 0
-2331 2356 0
-2356 2353 2331 0
-2354 2357 0
-2353 -2331 2357 0
-2357 2354 2353 0
-2357 2354 2331 0
-2355 2358 0
-2354 -2331 2358 0
-2358 2355 2354 0
-2358 2355 2331 0
-2356 2359 0
-2332 2359 0
-2359 2356 2332 0
-2357 2360 0
-2356 -2332 2360 0
-2360 2357 2356 0
-2360 2357 2332 0
-2358 2361 0
-2357 -2332 2361 0
-2361 2358 2357 0
-2361 2358 2332 0
-2359 2362 0
-2333 2362 0
-2362 2359 2333 0
-2360 2363 0
-2359 -2333 2363 0
-2363 2360 2359 0
-2363 2360 2333 0
-2361 2364 0
-2360 -2333 2364 0
-2364 2361 2360 0
-2364 2361 2333 0
-2362 2365 0
-2334 2365 0
-2365 2362 2334 0
-2363 2366 0
-2362 -2334 2366 0
-2366 2363 2362 0
-2366 2363 2334 0
-2364 2367 0
-2363 -2334 2367 0
-2367 2364 2363 0
-2367 2364 2334 0
-2365 2368 0
-2335 2368 0
-2368 2365 2335 0
-2366 2369 0
-2365 -2335 2369 0
-2369 2366 2365 0
-2369 2366 2335 0
-2367 2370 0
-2366 -2335 2370 0
-2370 2367 2366 0
-2370 2367 2335 0
-2368 2371 0
-2336 2371 0
-2371 2368 2336 0
-2369 2372 0
-2368 -2336 2372 0
-2372 2369 2368 0
-2372 2369 2336 0
-2370 2373 0
-2369 -2336 2373 0
-2373 2370 2369 0
-2373 2370 2336 0
-2371 2374 0
-2337 2374 0
-2374 2371 2337 0
-2372 2375 0
-2371 -2337 2375 0
-2375 2372 2371 0
-2375 2372 2337 0
-2373 2376 0
-2372 -2337 2376 0
-2376 2373 2372 0
-2376 2373 2337 0
2376 0
-2377 1 0
-2377 99 0
2377 -1 -99 0
-2378 2 0
-2378 100 0
2378 -2 -100 0
-2379 3 0
-2379 101 0
2379 -3 -101 0
-2380 4 0
-2380 102 0
2380 -4 -102 0
-2381 5 0
-2381 103 0
2381 -5 -103 0
-2382 6 0
-2382 104 0
2382 -6 -104 0
-2383 7 0
-2383 105 0
2383 -7 -105 0
-2384 8 0
-2384 106 0
2384 -8 -106 0
-2385 9 0
-2385 107 0
2385 -9 -107 0
-2386 10 0
-2386 108 0
2386 -10 -108 0
-2387 11 0
-2387 109 0
2387 -11 -109 0
-2388 12 0
-2388 110 0
2388 -12 -110 0
-2389 13 0
-2389 111 0
2389 -13 -111 0
-2390 14 0
-2390 112 0
2390 -14 -112 0
-2377 2391 0
-2391 2377 0
-2391 2392 0
-2378 2392 0
-2392 2391 2378 0
-2391 -2378 2393 0
-2393 2391 0
-2393 2378 0
-2392 2394 0
-2379 2394 0
-2394 2392 2379 0
-2393 2395 0
-2392 -2379 2395 0
-2395 2393 2392 0
-2395 2393 2379 0
-2393 -2379 2396 0
-2396 2393 0
-2396 2379 0
-2394 2397 0
-2380 2397 0
-2397 2394 2380 0
-2395 2398 0
-2394 -2380 2398 0
-2398 2395 2394 0
-2398 2395 2380 0
-2396 2399 0
-2395 -2380 2399 0
-2399 2396 2395 0
-2399 2396 2380 0
-2397 2400 0
-2381 2400 0
-2400 2397 2381 0
-2398 2401 0
-2397 -2381 2401 0
-2401 2398 2397 0
-2401 2398 2381 0
-2399 2402 0
-2398 -2381 2402 0
-2402 2399 2398 0
-2402 2399 2381 0
-2400 2403 0
-2382 2403 0
-2403 2400 2382 0
-2401 2404 0
-2400 -2382 2404 0
-2404 2401 2400 0
-2404 2401 2382 0
-2402 2405 0
-2401 -2382 2405 0
-2405 2402 2401 0
-2405 2402 2382 0
-2403 2406 0
-2383 2406 0
-2406 2403 2383 0
-2404 2407 0
-2403 -2383 2407 0
-2407 2404 2403 0
-2407 2404 2383 0
-2405 2408 0
-2404 -2383 2408 0
-2408 2405 2404 0
-2408 2405 2383 0
-2406 2409 0
-2384 2409 0
-2409 2406 2384 0
-2407 2410 0
-2406 -2384 2410 0
-2410 2407 2406 0
-2410 2407 2384 0
-2408 2411 0
-2407 -2384 2411 0
-2411 2408 2407 0
-2411 2408 2384 0
-2409 2412 0
-2385 2412 0
-2412 2409 2385 0
-2410 2413 0
-2409 -2385 2413 0
-2413 2410 2409 0
-2413 2410 2385 0
-2411 2414 0
-2410 -2385 2414 0
-2414 2411 2410 0
-2414 2411 2385 0
-2412 2415 0
-2386 2415 0
-2415 2412 2386 0
-2413 2416 0
-2412 -2386 2416 0
-2416 2413 2412 0
-2416 2413 2386 0
-2414 2417 0
-2413 -2386 2417 0
-2417 2414 2413 0
-2417 2414 2386 0
-2415 2418 0
-2387 2418 0
-2418 2415 2387 0
-2416 2419 0
-2415 -2387 2419 0
-2419 2416 2415 0
-2419 2416 2387 0
-2417 2420 0
-2416 -2387 2420 0
-2420 2417 2416 0
-2420 2417 2387 0
-2418 2421 0
-2388 2421 0
-2421 2418 2388 0
-2419 2422 0
-2418 -2388 2422 0
-2422 2419 2418 0
-2422 2419 2388 0
-2420 2423 0
-2419 -2388 2423 0
-2423 2420 2419 0
-2423 2420 2388 0
-2421 2424 0
-2389 2424 0
-2424 2421 2389 0
-2422 2425 0
-2421 -2389 2425 0
-2425 2422 2421 0
-2425 2422 2389 0
-2423 2426 0
-2422 -2389 2426 0
-2426 2423 2422 0
-2426 2423 2389 0
-2424 2427 0
-2390 2427 0
-2427 2424 2390 0
-2425 2428 0
-2424 -2390 2428 0
-2428 2425 2424 0
-2428 2425 2390 0
-2426 2429 0
-2425 -2390 2429 0
-2429 2426 2425 0
-2429 2426 2390 0
2429 0
-2430 1 0
-2430 113 0
2430 -1 -113 0
-2431 2 0
-2431 114 0
2431 -2 -114 0
-2432 3 0
-2432 115 0
2432 -3 -115 0
-2433 4 0
-2433 116 0
2433 -4 -116 0
-2434 5 0
-2434 117 0
2434 -5 -117 0
-2435 6 0
-2435 118 0
2435 -6 -118 0
-2436 7 0
-2436 119 0
2436 -7 -119 0
-2437 8 0
-2437 120 0
2437 -8 -120 0
-2438 9 0
-2438 121 0
2438 -9 -121 0
-2439 10 0
-2439 122 0
2439 -10 -122 0
-2440 11 0
-2440 123 0
2440 -11 -123 0
-2441 12 0
-2441 124 0
2441 -12 -124 0
-2442 13 0
-2442 125 0
2442 -13 -125 0
-2443 14 0
-2443 126 0
2443 -14 -126 0
-2430 2444 0
-2444 2430 0
-2444 2445 0
-2431 2445 0
-2445 2444 2431 0
-2444 -2431 2446 0
-2446 2444 0
-2446 2431 0
-2445 2447 0
-2432 2447 0
-2447 2445 2432 0
-2446 2448 0
-2445 -2432 2448 0
-2448 2446 2445 0
-2448 2446 2432 0
-2446 -2432 2449 0
-2449 2446 0
-2449 2432 0
-2447 2450 0
-2433 2450 0
-2450 2447 2433 0
-2448 2451 0
-2447 -2433 2451 0
-2451 2448 2447 0
-2451 2448 2433 0
-2449 2452 0
-2448 -2433 2452 0
-2452 2449 2448 0
-2452 2449 2433 0
-2450 2453 0
-2434 2453 0
-2453 2450 2434 0
-2451 2454 0
-2450 -2434 2454 0
-2454 2451 2450 0
-2454 2451 2434 0
-2452 2455 0
-2451 -2434 2455 0
-2455 2452 2451 0
-2455 2452 2434 0
-2453 2456 0
-2435 2456 0
-2456 2453 2435 0
-2454 2457 0
-2453 -2435 2457 0
-2457 2454 2453 0
-2457 2454 2435 0
-2455 2458 0
-2454 -2435 2458 0
-2458 2455 2454 0
-2458 2455 2435 0
-2456 2459 0
-2436 2459 0
-2459 2456 2436 0
-2457 2460 0
-2456 -2436 2460 0
-2460 2457 2456 0
-2460 2457 2436 0
-2458 2461 0
-2457 -2436 2461 0
-2461 2458 2457 0
-2461 2458 2436 0
-2459 2462 0
-2437 2462 0
-2462 2459 2437 0
-2460 2463 0
-2459 -2437 2463 0
-2463 2460 2459 0
-2463 2460 2437 0
-2461 2464 0
-2460 -2437 2464 0
-2464 2461 2460 0
-2464 2461 2437 0
-2462 2465 0
-2438 2465 0
-2465 2462 2438 0
-2463 2466 0
-2462 -2438 2466 0
-2466 2463 2462 0
-2466 2463 2438 0
-2464 2467 0
-2463 -2438 2467 0
-2467 2464 2463 0
-2467 2464 2438 0
-2465 2468 0
-2439 2468 0
-2468 2465 2439 0
-2466 2469 0
-2465 -2439 2469 0
-2469 2466 2465 0
-2469 2466 2439 0
-2467 2470 0
-2466 -2439 2470 0
-2470 2467 2466 0
-2470 2467 2439 0
-2468 2471 0
-2440 2471 0
-2471 2468 2440 0
-2469 2472 0
-2468 -2440 2472 0
-2472 2469 2468 0
-2472 2469 2440 0
-2470 2473 0
-2469 -2440 2473 0
-2473 2470 2469 0
-2473 2470 2440 0
-2471 2474 0
-2441 2474 0
-2474 2471 2441 0
-2472 2475 0
-2471 -2441 2475 0
-2475 2472 2471 0
-2475 2472 2441 0
-2473 2476 0
-2472 -2441 2476 0
-2476 2473 2472 0
-2476 2473 2441 0
-2474 2477 0
-2442 2477 0
-2477 2474 2442 0
-2475 2478 0
-2474 -2442 2478 0
-2478 2475 2474 0
-2478 2475 2442 0
-2476 2479 0
-2475 -2442 2479 0
-2479 2476 2475 0
-2479 2476 2442 0
-2477 2480 0
-2443 2480 0
-2480 2477 2443 0
-2478 2481 0
-2477 -2443 2481 0
-2481 2478 2477 0
-2481 2478 2443 0
-2479 2482 0
-2478 -2443 2482 0
-2482 2479 2478 0
-2482 2479 2443 0
2482 0
-2483 1 0
-2483 127 0
2483 -1 -127 0
-2484 2 0
-2484 128 0
2484 -2 -128 0
-2485 3 0
-2485 129 0
2485 -3 -129 0
-2486 4 0
-2486 130 0
2486 -4 -130 0
-2487 5 0
-2487 131 0
2487 -5 -131 0
-2488 6 0
-2488 132 0
2488 -6 -132 0
-2489 7 0
-2489 133 0
2489 -7 -133 0
-2490 8 0
-2490 134 0
2490 -8 -134 0
-2491 9 0
-2491 135 0
2491 -9 -135 0
-2492 10 0
-2492 136 0
2492 -10 -136 0
-2493 11 0
-2493 137 0
2493 -11 -137 0
-2494 12 0
-2494 138 0
2494 -12 -138 0
-2495 13 0
-2495 139 0
2495 -13 -139 0
-2496 14 0
-2496 140 0
2496 -14 -140 0
-2483 2497 0
-2497 2483 0
-2497 2498 0
-2484 2498 0
-2498 2497 2484 0
-2497 -2484 2499 0
-2499 2497 0
-2499 2484 0
-2498 2500 0
-2485 2500 0
-2500 2498 2485 0
-2499 2501 0
-2498 -2485 2501 0
-2501 2499 2498 0
-2501 2499 2485 0
-2499 -2485 2502 0
-2502 2499 0
-2502 2485 0
-2500 2503 0
-2486 2503 0
-2503 2500 2486 0
-2501 2504 0
-2500 -2486 2504 0
-2504 2501 2500 0
-2504 2501 2486 0
-2502 2505 0
-2501 -2486 2505 0
-2505 2502 2501 0
-2505 2502 2486 0
-2503 2506 0
-2487 2506 0
-2506 2503 2487 0
-2504 2507 0
-2503 -2487 2507 0
-2507 2504 2503 0
-2507 2504 2487 0
-2505 2508 0
-2504 -2487 2508 0
-2508 2505 2504 0
-2508 2505 2487 0
-2506 2509 0
-2488 2509 0
-2509 2506 2488 0
-2507 2510 0
-2506 -2488 2510 0
-2510 2507 2506 0
-2510 2507 2488 0
-2508 2511 0
-2507 -2488 2511 0
-2511 2508 2507 0
-2511 2508 2488 0
-2509 2512 0
-2489 2512 0
-2512 2509 2489 0
-2510 2513 0
-2509 -2489 2513 0
-2513 2510 2509 0
-2513 2510 2489 0
-2511 2514 0
-2510 -2489 2514 0
-2514 2511 2510 0
-2514 2511 2489 0
-2512 2515 0
-2490 2515 0
-2515 2512 2490 0
-2513 2516 0
-2512 -2490 2516 0
-2516 2513 2512 0
-2516 2513 2490 0
-2514 2517 0
-2513 -2490 2517 0
-2517 2514 2513 0
-2517 2514 2490 0
-2515 2518 0
-2491 2518 0
-2518 2515 2491 0
-2516 2519 0
-2515 -2491 2519 0
-2519 2516 2515 0
-2519 2516 2491 0
-2517 2520 0
-2516 -2491 2520 0
-2520 2517 2516 0
-2520 2517 2491 0
-2518 2521 0
-2492 2521 0
-2521 2518 2492 0
-2519 2522 0
-2518 -2492 2522 0
-2522 2519 2518 0
-2522 2519 2492 0
-2520 2523 0
-2519 -2492 2523 0
-2523 2520 2519 0
-2523 2520 2492 0
-2521 2524 0
-2493 2524 0
-2524 2521 2493 0
-2522 2525 0
-2521 -2493 2525 0
-2525 2522 2521 0
-2525 2522 2493 0
-2523 2526 0
-2522 -2493 2526 0
-2526 2523 2522 0
-2526 2523 2493 0
-2524 2527 0
-2494 2527 0
-2527 2524 2494 0
-2525 2528 0
-2524 -2494 2528 0
-2528 2525 2524 0
-2528 2525 2494 0
-2526 2529 0
-2525 -2494 2529 0
-2529 2526 2525 0
-2529 2526 2494 0
-2527 2530 0
-2495 2530 0
-2530 2527 2495 0
-2528 2531 0
-2527 -2495 2531 0
-2531 2528 2527 0
-2531 2528 2495 0
-2529 2532 0
-2528 -2495 2532 0
-2532 2529 2528 0
-2532 2529 2495 0
-2530 2533 0
-2496 2533 0
-2533 2530 2496 0
-2531 2534 0
-2530 -2496 2534 0
-2534 2531 2530 0
-2534 2531 2496 0
-2532 2535 0
-2531 -2496 2535 0
-2535 2532 2531 0
-2535 2532 2496 0
2535 0
-2536 1 0
-2536 141 0
2536 -1 -141 0
-2537 2 0
-2537 142 0
2537 -2 -142 0
-2538 3 0
-2538 143 0
2538 -3 -143 0
-2539 4 0
-2539 144 0
2539 -4 -144 0
-2540 5 0
-2540 145 0
2540 -5 -145 0
-2541 6 0
-2541 146 0
2541 -6 -146 0
-2542 7 0
-2542 147 0
2542 -7 -147 0
-2543 8 0
-2543 148 0
2543 -8 -148 0
-2544 9 0
-2544 149 0
2544 -9 -149 0
-2545 10 0
-2545 150 0
2545 -10 -150 0
-2546 11 0
-2546 151 0
2546 -11 -151 0
-2547 12 0
-2547 152 0
2547 -12 -152 0
-2548 13 0
-2548 153 0
2548 -13 -153 0
-2549 14 0
-2549 154 0
2549 -14 -154 0
-2536 2550 0
-2550 2536 0
-2550 2551 0
-2537 2551 0
-2551 2550 2537 0
-2550 -2537 2552 0
-2552 2550 0
-2552 2537 0
-2551 2553 0
-2538 2553 0
-2553 2551 2538 0
-2552 2554 0
-2551 -2538 2554 0
-2554 2552 2551 0
-2554 2552 2538 0
-2552 -2538 2555 0
-2555 2552 0
-2555 2538 0
-2553 2556 0
-2539 2556 0
-2556 2553 2539 0
-2554 2557 0
-2553 -2539 2557 0
-2557 2554 2553 0
-2557 2554 2539 0
-2555 2558 0
-2554 -2539 2558 0
-2558 2555 2554 0
-2558 2555 2539 0
-2556 2559 0
-2540 2559 0
-2559 2556 2540 0
-2557 2560 0
-2556 -2540 2560 0
-2560 2557 2556 0
-2560 2557 2540 0
-2558 2561 0
-2557 -2540 2561 0
-2561 2558 2557 0
-2561 2558 2540 0
-2559 2562 0
-2541 2562 0
-2562 2559 2541 0
-2560 2563 0
-2559 -2541 2563 0
-2563 2560 2559 0
-2563 2560 2541 0
-2561 2564 0
-2560 -2541 2564 0
-2564 2561 2560 0
-2564 2561 2541 0
-2562 2565 0
-2542 2565 0
-2565 2562 2542 0
-2563 2566 0
-2562 -2542 2566 0
-2566 2563 2562 0
-2566 2563 2542 0
-2564 2567 0
-2563 -2542 2567 0
-2567 2564 2563 0
-2567 2564 2542 0
-2565 2568 0
-2543 2568 0
-2568 2565 2543 0
-2566 2569 0
-2565 -2543 2569 0
-2569 2566 2565 0
-2569 2566 2543 0
-2567 2570 0
-2566 -2543 2570 0
-2570 2567 2566 0
-2570 2567 2543 0
-2568 2571 0
-2544 2571 0
-2571 2568 2544 0
-2569 2572 0
-2568 -2544 2572 0
-2572 2569 2568 0
-2572 2569 2544 0
-2570 2573 0
-2569 -2544 2573 0
-2573 2570 2569 0
-2573 2570 2544 0
-2571 2574 0
-2545 2574 0
-2574 2571 2545 0
-2572 2575 0
-2571 -2545 2575 0
-2575 2572 2571 0
-2575 2572 2545 0
-2573 2576 0
-2572 -2545 2576 0
-2576 2573 2572 0
-2576 2573 2545 0
-2574 2577 0
-2546 2577 0
-2577 2574 2546 0
-2575 2578 0
-2574 -2546 2578 0
-2578 2575 2574 0
-2578 2575 2546 0
-2576 2579 0
-2575 -2546 2579 0
-2579 2576 2575 0
-2579 2576 2546 0
-2577 2580 0
-2547 2580 0
-2580 2577 2547 0
-2578 2581 0
-2577 -2547 2581 0
-2581 2578 2577 0
-2581 2578 2547 0
-2579 2582 0
-2578 -2547 2582 0
-2582 2579 2578 0
-2582 2579 2547 0
-2580 2583 0
-2548 2583 0
-2583 2580 2548 0
-2581 2584 0
-2580 -2548 2584 0
-2584 2581 2580 0
-2584 2581 2548 0
-2582 2585 0
-2581 -2548 2585 0
-2585 2582 2581 0
-2585 2582 2548 0
-2583 2586 0
-2549 2586 0
-2586 2583 2549 0
-2584 2587 0
-2583 -2549 2587 0
-2587 2584 2583 0
-2587 2584 2549 0
-2585 2588 0
-2584 -2549 2588 0
-2588 2585 2584 0
-2588 2585 2549 0
2588 0
-2589 1 0
-2589 155 0
2589 -1 -155 0
-2590 2 0
-2590 156 0
2590 -2 -156 0
-2591 3 0
-2591 157 0
2591 -3 -157 0
-2592 4 0
-2592 158 0
2592 -4 -158 0
-2593 5 0
-2593 159 0
2593 -5 -159 0
-2594 6 0
-2594 160 0
2594 -6 -160 0
-2595 7 0
-2595 161 0
2595 -7 -161 0
-2596 8 0
-2596 162 0
2596 -8 -162 0
-2597 9 0
-2597 163 0
2597 -9 -163 0
-2598 10 0
-2598 164 0
2598 -10 -164 0
-2599 11 0
-2599 165 0
2599 -11 -165 0
-2600 12 0
-2600 166 0
2600 -12 -166 0
-2601 13 0
-2601 167 0
2601 -13 -167 0
-2602 14 0
-2602 168 0
2602 -14 -168 0
-2589 2603 0
-2603 2589 0
-2603 2604 0
-2590 2604 0
-2604 2603 2590 0
-2603 -2590 2605 0
-2605 2603 0
-2605 2590 0
-2604 2606 0
-2591 2606 0
-2606 2604 2591 0
-2605 2607 0
-2604 -2591 2607 0
-2607 2605 2604 0
-2607 2605 2591 0
-2605 -2591 2608 0
-2608 2605 0
-2608 2591 0
-2606 2609 0
-2592 2609 0
-2609 2606 2592 0
-2607 2610 0
-2606 -2592 2610 0
-2610 2607 2606 0
-2610 2607 2592 0
-2608 2611 0
-2607 -2592 2611 0
-2611 2608 2607 0
-2611 2608 2592 0
-2609 2612 0
-2593 2612 0
-2612 2609 2593 0
-2610 2613 0
-2609 -2593 2613 0
-2613 2610 2609 0
-2613 2610 2593 0
-2611 2614 0
-2610 -2593 2614 0
-2614 2611 2610 0
-2614 2611 2593 0
-2612 2615 0
-2594 2615 0
-2615 2612 2594 0
-2613 2616 0
-2612 -2594 2616 0
-2616 2613 2612 0
-2616 2613 2594 0
-2614 2617 0
-2613 -2594 2617 0
-2617 2614 2613 0
-2617 2614 2594 0
-2615 2618 0
-2595 2618 0
-2618 2615 2595 0
-2616 2619 0
-2615 -2595 2619 0
-2619 2616 2615 0
-2619 2616 2595 0
-2617 2620 0
-2616 -2595 2620 0
-2620 2617 2616 0
-2620 2617 2595 0
-2618 2621 0
-2596 2621 0
-2621 2618 2596 0
-2619 2622 0
-2618 -2596 2622 0
-2622 2619 2618 0
-2622 2619 2596 0
-2620 2623 0
-2619 -2596 2623 0
-2623 2620 2619 0
-2623 2620 2596 0
-2621 2624 0
-2597 2624 0
-2624 2621 2597 0
-2622 2625 0
-2621 -2597 2625 0
-2625 2622 2621 0
-2625 2622 2597 0
-2623 2626 0
-2622 -2597 2626 0
-2626 2623 2622 0
-2626 2623 2597 0
-2624 2627 0
-2598 2627 0
-2627 2624 2598 0
-2625 2628 0
-2624 -2598 2628 0
-2628 2625 2624 0
-2628 2625 2598 0
-2626 2629 0
-2625 -2598 2629 0
-2629 2626 2625 0
-2629 2626 2598 0
-2627 2630 0
-2599 2630 0
-2630 2627 2599 0
-2628 2631 0
-2627 -2599 2631 0
-2631 2628 2627 0
-2631 2628 2599 0
-2629 2632 0
-2628 -2599 2632 0
-2632 2629 2628 0
-2632 2629 2599 0
-2630 2633 0
-2600 2633 0
-2633 2630 2600 0
-2631 2634 0
-2630 -2600 2634 0
-2634 2631 2630 0
-2634 2631 2600 0
-2632 2635 0
-2631 -2600 2635 0
-2635 2632 2631 0
-2635 2632 2600 0
-2633 2636 0
-2601 2636 0
-2636 2633 2601 0
-2634 2637 0
-2633 -2601 2637 0
-2637 2634 2633 0
-2637 2634 2601 0
-2635 2638 0
-2634 -2601 2638 0
-2638 2635 2634 0
-2638 2635 2601 0
-2636 2639 0
-2602 2639 0
-2639 2636 2602 0
-2637 2640 0
-2636 -2602 2640 0
-2640 2637 2636 0
-2640 2637 2602 0
-2638 2641 0
-2637 -2602 2641 0
-2641 2638 2637 0
-2641 2638 2602 0
2641 0
-2642 15 0
-2642 29 0
2642 -15 -29 0
-2643 16 0
-2643 30 0
2643 -16 -30 0
-2644 17 0
-2644 31 0
2644 -17 -31 0
-2645 18 0
-2645 32 0
2645 -18 -32 0
-2646 19 0
-2646 33 0
2646 -19 -33 0
-2647 20 0
-2647 34 0
2647 -20 -34 0
-2648 21 0
-2648 35 0
2648 -21 -35 0
-2649 22 0
-2649 36 0
2649 -22 -36 0
-2650 23 0
-2650 37 0
2650 -23 -37 0
-2651 24 0
-2651 38 0
2651 -24 -38 0
-2652 25 0
-2652 39 0
2652 -25 -39 0
-2653 26 0
-2653 40 0
2653 -26 -40 0
-2654 27 0
-2654 41 0
2654 -27 -41 0
-2655 28 0
-2655 42 0
2655 -28 -42 0
-2642 2656 0
-2656 2642 0
-2656 2657 0
-2643 2657 0
-2657 2656 2643 0
-2656 -2643 2658 0
-2658 2656 0
-2658 2643 0
-2657 2659 0
-2644 2659 0
-2659 2657 2644 0
-2658 2660 0
-2657 -2644 2660 0
-2660 2658 2657 0
-2660 2658 2644 0
-2658 -2644 2661 0
-2661 2658 0
-2661 2644 0
-2659 2662 0
-2645 2662 0
-2662 2659 2645 0
-2660 2663 0
-2659 -2645 2663 0
-2663 2660 2659 0
-2663 2660 2645 0
-2661 2664 0
-2660 -2645 2664 0
-2664 2661 2660 0
-2664 2661 2645 0
-2662 2665 0
-2646 2665 0
-2665 2662 2646 0
-2663 2666 0
-2662 -2646 2666 0
-2666 2663 2662 0
-2666 2663 2646 0
-2664 2667 0
-2663 -2646 2667 0
-2667 2664 2663 0
-2667 2664 2646 0
-2665 2668 0
-2647 2668 0
-2668 2665 2647 0
-2666 2669 0
-2665 -2647 2669 0
-2669 2666 2665 0
-2669 2666 2647 0
-2667 2670 0
-2666 -2647 2670 0
-2670 2667 2666 0
-2670 2667 2647 0
-2668 2671 0
-2648 2671 0
-2671 2668 2648 0
-2669 2672 0
-2668 -2648 2672 0
-2672 2669 2668 0
-2672 2669 2648 0
-2670 2673 0
-2669 -2648 2673 0
-2673 2670 2669 0
-2673 2670 2648 0
-2671 2674 0
-2649 2674 0
-2674 2671 2649 0
-2672 2675 0
-2671 -2649 2675 0
-2675 2672 2671 0
-2675 2672 2649 0
-2673 2676 0
-2672 -2649 2676 0
-2676 2673 2672 0
-2676 2673 2649 0
-2674 2677 0
-2650 2677 0
-2677 2674 2650 0
-2675 2678 0
-2674 -2650 2678 0
-2678 2675 2674 0
-2678 2675 2650 0
-2676 2679 0
-2675 -2650 2679 0
-2679 2676 2675 0
-2679 2676 2650 0
-2677 2680 0
-2651 2680 0
-2680 2677 2651 0
-2678 2681 0
-2677 -2651 2681 0
-2681 2678 2677 0
-2681 2678 2651 0
-2679 2682 0
-2678 -2651 2682 0
-2682 2679 2678 0
-2682 2679 2651 0
-2680 2683 0
-2652 2683 0
-2683 2680 2652 0
-2681 2684 0
-2680 -2652 2684 0
-2684 2681 2680 0
-2684 2681 2652 0
-2682 2685 0
-2681 -2652 2685 0
-2685 2682 2681 0
-2685 2682 2652 0
-2683 2686 0
-2653 2686 0
-2686 2683 2653 0
-2684 2687 0
-2683 -2653 2687 0
-2687 2684 2683 0
-2687 2684 2653 0
-2685 2688 0
-2684 -2653 2688 0
-2688 2685 2684 0
-2688 2685 2653 0
-2686 2689 0
-2654 2689 0
-2689 2686 2654 0
-2687 2690 0
-2686 -2654 2690 0
-2690 2687 2686 0
-2690 2687 2654 0
-2688 2691 0
-2687 -2654 2691 0
-2691 2688 2687 0
-2691 2688 2654 0
-2689 2692 0
-2655 2692 0
-2692 2689 2655 0
-2690 2693 0
-2689 -2655 2693 0
-2693 2690 2689 0
-2693 2690 2655 0
-2691 2694 0
-2690 -2655 2694 0
-2694 2691 2690 0
-2694 2691 2655 0
2694 0
-2695 15 0
-2695 43 0
2695 -15 -43 0
-2696 16 0
-2696 44 0
2696 -16 -44 0
-2697 17 0
-2697 45 0
2697 -17 -45 0
-2698 18 0
-2698 46 0
2698 -18 -46 0
-2699 19 0
-2699 47 0
2699 -19 -47 0
-2700 20 0
-2700 48 0
2700 -20 -48 0
-2701 21 0
-2701 49 0
2701 -21 -49 0
-2702 22 0
-2702 50 0
2702 -22 -50 0
-2703 23 0
-2703 51 0
2703 -23 -51 0
-2704 24 0
-2704 52 0
2704 -24 -52 0
-2705 25 0
-2705 53 0
2705 -25 -53 0
-2706 26 0
-2706 54 0
2706 -26 -54 0
-2707 27 0
-2707 55 0
2707 -27 -55 0
-2708 28 0
-2708 56 0
2708 -28 -56 0
-2695 2709 0
-2709 2695 0
-2709 2710 0
-2696 2710 0
-2710 2709 2696 0
-2709 -2696 2711 0
-2711 2709 0
-2711 2696 0
-2710 2712 0
-2697 2712 0
-2712 2710 2697 0
-2711 2713 0
-2710 -2697 2713 0
-2713 2711 2710 0
-2713 2711 2697 0
-2711 -2697 2714 0
-2714 2711 0
-2714 2697 0
-2712 2715 0
-2698 2715 0
-2715 2712 2698 0
-2713 2716 0
-2712 -2698 2716 0
-2716 2713 2712 0
-2716 2713 2698 0
-2714 2717 0
-2713 -2698 2717 0
-2717 2714 2713 0
-2717 2714 2698 0
-2715 2718 0
-2699 2718 0
-2718 2715 2699 0
-2716 2719 0
-2715 -2699 2719 0
-2719 2716 2715 0
-2719 2716 2699 0
-2717 2720 0
-2716 -2699 2720 0
-2720 2717 2716 0
-2720 2717 2699 0
-2718 2721 0
-2700 2721 0
-2721 2718 2700 0
-2719 2722 0
-2718 -2700 2722 0
-2722 2719 2718 0
-2722 2719 2700 0
-2720 2723 0
-2719 -2700 2723 0
-2723 2720 2719 0
-2723 2720 2700 0
-2721 2724 0
-2701 2724 0
-2724 2721 2701 0
-2722 2725 0
-2721 -2701 2725 0
-2725 2722 2721 0
-2725 2722 2701 0
-2723 2726 0
-2722 -2701 2726 0
-2726 2723 2722 0
-2726 2723 2701 0
-2724 2727 0
-2702 2727 0
-2727 2724 2702 0
-2725 2728 0
-2724 -2702 2728 0
-2728 2725 2724 0
-2728 2725 2702 0
-2726 2729 0
-2725 -2702 2729 0
-2729 2726 2725 0
-2729 2726 2702 0
-2727 2730 0
-2703 2730 0
-2730 2727 2703 0
-2728 2731 0
-2727 -2703 2731 0
-2731 2728 2727 0
-2731 2728 2703 0
-2729 2732 0
-2728 -2703 2732 0
-2732 2729 2728 0
-2732 2729 2703 0
-2730 2733 0
-2704 2733 0
-2733 2730 2704 0
-2731 2734 0
-2730 -2704 2734 0
-2734 2731 2730 0
-2734 2731 2704 0
-2732 2735 0
-2731 -2704 2735 0
-2735 2732 2731 0
-2735 2732 2704 0
-2733 2736 0
-2705 2736 0
-2736 2733 2705 0
-2734 2737 0
-2733 -2705 2737 0
-2737 2734 2733 0
-2737 2734 2705 0
-2735 2738 0
-2734 -2705 2738 0
-2738 2735 2734 0
-2738 2735 2705 0
-2736 2739 0
-2706 2739 0
-2739 2736 2706 0
-2737 2740 0
-2736 -2706 2740 0
-2740 2737 2736 0
-2740 2737 2706 0
-2738 2741 0
-2737 -2706 2741 0
-2741 2738 2737 0
-2741 2738 2706 0
-2739 2742 0
-2707 2742 0
-2742 2739 2707 0
-2740 2743 0
-2739 -2707 2743 0
-2743 2740 2739 0
-2743 2740 2707 0
-2741 2744 0
-2740 -2707 2744 0
-2744 2741 2740 0
-2744 2741 2707 0
-2742 2745 0
-2708 2745 0
-2745 2742 2708 0
-2743 2746 0
-2742 -2708 2746 0
-2746 2743 2742 0
-2746 2743 2708 0
-2744 2747 0
-2743 -2708 2747 0
-2747 2744 2743 0
-2747 2744 2708 0
2747 0
-2748 15 0
-2748 57 0
2748 -15 -57 0
-2749 16 0
-2749 58 0
2749 -16 -58 0
-2750 17 0
-2750 59 0
2750 -17 -59 0
-2751 18 0
-2751 60 0
2751 -18 -60 0
-2752 19 0
-2752 61 0
2752 -19 -61 0
-2753 20 0
-2753 62 0
2753 -20 -62 0
-2754 21 0
-2754 63 0
2754 -21 -63 0
-2755 22 0
-2755 64 0
2755 -22 -64 0
-2756 23 0
-2756 65 0
2756 -23 -65 0
-2757 24 0
-2757 66 0
2757 -24 -66 0
-2758 25 0
-2758 67 0
2758 -25 -67 0
-2759 26 0
-2759 68 0
2759 -26 -68 0
-2760 27 0
-2760 69 0
2760 -27 -69 0
-2761 28 0
-2761 70 0
2761 -28 -70 0
-2748 2762 0
-2762 2748 0
-2762 2763 0
-2749 2763 0
-2763 2762 2749 0
-2762 -2749 2764 0
-2764 2762 0
-2764 2749 0
-2763 2765 0
-2750 2765 0
-2765 2763 2750 0
-2764 2766 0
-2763 -2750 2766 0
-2766 2764 2763 0
-2766 2764 2750 0
-2764 -2750 2767 0
-2767 2764 0
-2767 2750 0
-2765 2768 0
-2751 2768 0
-2768 2765 2751 0
-2766 2769 0
-2765 -2751 2769 0
-2769 2766 2765 0
-2769 2766 2751 0
-2767 2770 0
-2766 -2751 2770 0
-2770 2767 2766 0
-2770 2767 2751 0
-2768 2771 0
-2752 2771 0
-2771 2768 2752 0
-2769 2772 0
-2768 -2752 2772 0
-2772 2769 2768 0
-2772 2769 2752 0
-2770 2773 0
-2769 -2752 2773 0
-2773 2770 2769 0
-2773 2770 2752 0
-2771 2774 0
-2753 2774 0
-2774 2771 2753 0
-2772 2775 0
-2771 -2753 2775 0
-2775 2772 2771 0
-2775 2772 2753 0
-2773 2776 0
-2772 -2753 2776 0
-2776 2773 2772 0
-2776 2773 2753 0
-2774 2777 0
-2754 2777 0
-2777 2774 2754 0
-2775 2778 0
-2774 -2754 2778 0
-2778 2775 2774 0
-2778 2775 2754 0
-2776 2779 0
-2775 -2754 2779 0
-2779 2776 2775 0
-2779 2776 2754 0
-2777 2780 0
-2755 2780 0
-2780 2777 2755 0
-2778 2781 0
-2777 -2755 2781 0
-2781 2778 2777 0
-2781 2778 2755 0
-2779 2782 0
-2778 -2755 2782 0
-2782 2779 2778 0
-2782 2779 2755 0
-2780 2783 0
-2756 2783 0
-2783 2780 2756 0
-2781 2784 0
-2780 -2756 2784 0
-2784 2781 2780 0
-2784 2781 2756 0
-2782 2785 0
-2781 -2756 2785 0
-2785 2782 2781 0
-2785 2782 2756 0
-2783 2786 0
-2757 2786 0
-2786 2783 2757 0
-2784 2787 0
-2783 -2757 2787 0
-2787 2784 2783 0
-2787 2784 2757 0
-2785 2788 0
-2784 -2757 2788 0
-2788 2785 2784 0
-2788 2785 2757 0
-2786 2789 0
-2758 2789 0
-2789 2786 2758 0
-2787 2790 0
-2786 -2758 2790 0
-2790 2787 2786 0
-2790 2787 2758 0
-2788 2791 0
-2787 -2758 2791 0
-2791 2788 2787 0
-2791 2788 2758 0
-2789 2792 0
-2759 2792 0
-2792 2789 2759 0
-2790 2793 0
-2789 -2759 2793 0
-2793 2790 2789 0
-2793 2790 2759 0
-2791 2794 0
-2790 -2759 2794 0
-2794 2791 2790 0
-2794 2791 2759 0
-2792 2795 0
-2760 2795 0
-2795 2792 2760 0
-2793 2796 0
-2792 -2760 2796 0
-2796 2793 2792 0
-2796 2793 2760 0
-2794 2797 0
-2793 -2760 2797 0
-2797 2794 2793 0
-2797 2794 2760 0
-2795 2798 0
-2761 2798 0
-2798 2795 2761 0
-2796 2799 0
-2795 -2761 2799 0
-2799 2796 2795 0
-2799 2796 2761 0
-2797 2800 0
-2796 -2761 2800 0
-2800 2797 2796 0
-2800 2797 2761 0
2800 0
-2801 15 0
-2801 71 0
2801 -15 -71 0
-2802 16 0
-2802 72 0
2802 -16 -72 0
-2803 17 0
-2803 73 0
2803 -17 -73 0
-2804 18 0
-2804 74 0
2804 -18 -74 0
-2805 19 0
-2805 75 0
2805 -19 -75 0
-2806 20 0
-2806 76 0
2806 -20 -76 0
-2807 21 0
-2807 77 0
2807 -21 -77 0
-2808 22 0
-2808 78 0
2808 -22 -78 0
-2809 23 0
-2809 79 0
2809 -23 -79 0
-2810 24 0
-2810 80 0
2810 -24 -80 0
-2811 25 0
-2811 81 0
2811 -25 -81 0
-2812 26 0
-2812 82 0
2812 -26 -82 0
-2813 27 0
-2813 83 0
2813 -27 -83 0
-2814 28 0
-2814 84 0
2814 -28 -84 0
-2801 2815 0
-2815 2801 0
-2815 2816 0
-2802 2816 0
-2816 2815 2802 0
-2815 -2802 2817 0
-2817 2815 0
-2817 2802 0
-2816 2818 0
-2803 2818 0
-2818 2816 2803 0
-2817 2819 0
-2816 -2803 2819 0
-2819 2817 2816 0
-2819 2817 2803 0
-2817 -2803 2820 0
-2820 2817 0
-2820 2803 0
-2818 2821 0
-2804 2821 0
-2821 2818 2804 0
-2819 2822 0
-2818 -2804 2822 0
-2822 2819 2818 0
-2822 2819 2804 0
-2820 2823 0
-2819 -2804 2823 0
-2823 2820 2819 0
-2823 2820 2804 0
-2821 2824 0
-2805 2824 0
-2824 2821 2805 0
-2822 2825 0
-2821 -2805 2825 0
-2825 2822 2821 0
-2825 2822 2805 0
-2823 2826 0
-2822 -2805 2826 0
-2826 2823 2822 0
-2826 2823 2805 0
-2824 2827 0
-2806 2827 0
-2827 2824 2806 0
-2825 2828 0
-2824 -2806 2828 0
-2828 2825 2824 0
-2828 2825 2806 0
-2826 2829 0
-2825 -2806 2829 0
-2829 2826 2825 0
-2829 2826 2806 0
-2827 2830 0
-2807 2830 0
-2830 2827 2807 0
-2828 2831 0
-2827 -2807 2831 0
-2831 2828 2827 0
-2831 2828 2807 0
-2829 2832 0
-2828 -2807 2832 0
-2832 2829 2828 0
-2832 2829 2807 0
-2830 2833 0
-2808 2833 0
-2833 2830 2808 0
-2831 2834 0
-2830 -2808 2834 0
-2834 2831 2830 0
-2834 2831 2808 0
-2832 2835 0
-2831 -2808 2835 0
-2835 2832 2831 0
-2835 2832 2808 0
-2833 2836 0
-2809 2836 0
-2836 2833 2809 0
-2834 2837 0
-2833 -2809 2837 0
-2837 2834 2833 0
-2837 2834 2809 0
-2835 2838 0
-2834 -2809 2838 0
-2838 2835 2834 0
-2838 2835 2809 0
-2836 2839 0
-2810 2839 0
-2839 2836 2810 0
-2837 2840 0
-2836 -2810 2840 0
-2840 2837 2836 0
-2840 2837 2810 0
-2838 2841 0
-2837 -2810 2841 0
-2841 2838 2837 0
-2841 2838 2810 0
-2839 2842 0
-2811 2842 0
-2842 2839 2811 0
-2840 2843 0
-2839 -2811 2843 0
-2843 2840 2839 0
-2843 2840 2811 0
-2841 2844 0
-2840 -2811 2844 0
-2844 2841 2840 0
-2844 2841 2811 0
-2842 2845 0
-2812 2845 0
-2845 2842 2812 0
-2843 2846 0
-2842 -2812 2846 0
-2846 2843 2842 0
-2846 2843 2812 0
-2844 2847 0
-2843 -2812 2847 0
-2847 2844 2843 0
-2847 2844 2812 0
-2845 2848 0
-2813 2848 0
-2848 2845 2813 0
-2846 2849 0
-2845 -2813 2849 0
-2849 2846 2845 0
-2849 2846 2813 0
-2847 2850 0
-2846 -2813 2850 0
-2850 2847 2846 0
-2850 2847 2813 0
-2848 2851 0
-2814 2851 0
-2851 2848 2814 0
-2849 2852 0
-2848 -2814 2852 0
-2852 2849 2848 0
-2852 2849 2814 0
-2850 2853 0
-2849 -2814 2853 0
-2853 2850 2849 0
-2853 2850 2814 0
2853 0
-2854 15 0
-2854 85 0
2854 -15 -85 0
-2855 16 0
-2855 86 0
2855 -16 -86 0
-2856 17 0
-2856 87 0
2856 -17 -87 0
-2857 18 0
-2857 88 0
2857 -18 -88 0
-2858 19 0
-2858 89 0
2858 -19 -89 0
-2859 20 0
-2859 90 0
2859 -20 -90 0
-2860 21 0
-2860 91 0
2860 -21 -91 0
-2861 22 0
-2861 92 0
2861 -22 -92 0
-2862 23 0
-2862 93 0
2862 -23 -93 0
-2863 24 0
-2863 94 0
2863 -24 -94 0
-2864 25 0
-2864 95 0
2864 -25 -95 0
-2865 26 0
-2865 96 0
2865 -26 -96 0
-2866 27 0
-2866 97 0
2866 -27 -97 0
-2867 28 0
-2867 98 0
2867 -28 -98 0
-2854 2868 0
-2868 2854 0
-2868 2869 0
-2855 2869 0
-2869 2868 2855 0
-2868 -2855 2870 0
-2870 2868 0
-2870 2855 0
-2869 2871 0
-2856 2871 0
-2871 2869 2856 0
-2870 2872 0
-2869 -2856 2872 0
-2872 2870 2869 0
-2872 2870 2856 0
-2870 -2856 2873 0
-2873 2870 0
-2873 2856 0
-2871 2874 0
-2857 2874 0
-2874 2871 2857 0
-2872 2875 0
-2871 -2857 2875 0
-2875 2872 2871 0
-2875 2872 2857 0
-2873 2876 0
-2872 -2857 2876 0
-2876 2873 2872 0
-2876 2873 2857 0
-2874 2877 0
-2858 2877 0
-2877 2874 2858 0
-2875 2878 0
-2874 -2858 2878 0
-2878 2875 2874 0
-2878 2875 2858 0
-2876 2879 0
-2875 -2858 2879 0
-2879 2876 2875 0
-2879 2876 2858 0
-2877 2880 0
-2859 2880 0
-2880 2877 2859 0
-2878 2881 0
-2877 -2859 2881 0
-2881 2878 2877 0
-2881 2878 2859 0
-2879 2882 0
-2878 -2859 2882 0
-2882 2879 2878 0
-2882 2879 2859 0
-2880 2883 0
-2860 2883 0
-2883 2880 2860 0
-2881 2884 0
-2880 -2860 2884 0
-2884 2881 2880 0
-2884 2881 2860 0
-2882 2885 0
-2881 -2860 2885 0
-2885 2882 2881 0
-2885 2882 2860 0
-2883 2886 0
-2861 2886 0
-2886 2883 2861 0
-2884 2887 0
-2883 -2861 2887 0
-2887 2884 2883 0
-2887 2884 2861 0
-2885 2888 0
-2884 -2861 2888 0
-2888 2885 2884 0
-2888 2885 2861 0
-2886 2889 0
-2862 2889 0
-2889 2886 2862 0
-2887 2890 0
-2886 -2862 2890 0
-2890 2887 2886 0
-2890 2887 2862 0
-2888 2891 0
-2887 -2862 2891 0
-2891 2888 2887 0
-2891 2888 2862 0
-2889 2892 0
-2863 2892 0
-2892 2889 2863 0
-2890 2893 0
-2889 -2863 2893 0
-2893 2890 2889 0
-2893 2890 2863 0
-2891 2894 0
-2890 -2863 2894 0
-2894 2891 2890 0
-2894 2891 2863 0
-2892 2895 0
-2864 2895 0
-2895 2892 2864 0
-2893 2896 0
-2892 -2864 2896 0
-2896 2893 2892 0
-2896 2893 2864 0
-2894 2897 0
-2893 -2864 2897 0
-2897 2894 2893 0
-2897 2894 2864 0
-2895 2898 0
-2865 2898 0
-2898 2895 2865 0
-2896 2899 0
-2895 -2865 2899 0
-2899 2896 2895 0
-2899 2896 2865 0
-2897 2900 0
-2896 -2865 2900 0
-2900 2897 2896 0
-2900 2897 2865 0
-2898 2901 0
-2866 2901 0
-2901 2898 2866 0
-2899 2902 0
-2898 -2866 2902 0
-2902 2899 2898 0
-2902 2899 2866 0
-2900 2903 0
-2899 -2866 2903 0
-2903 2900 2899 0
-2903 2900 2866 0
-2901 2904 0
-2867 2904 0
-2904 2901 2867 0
-2902 2905 0
-2901 -2867 2905 0
-2905 2902 2901 0
-2905 2902 2867 0
-2903 2906 0
-2902 -2867 2906 0
-2906 2903 2902 0
-2906 2903 2867 0
2906 0
-2907 15 0
-2907 99 0
2907 -15 -99 0
-2908 16 0
-2908 100 0
2908 -16 -100 0
-2909 17 0
-2909 101 0
2909 -17 -101 0
-2910 18 0
-2910 102 0
2910 -18 -102 0
-2911 19 0
-2911 103 0
2911 -19 -103 0
-2912 20 0
-2912 104 0
2912 -20 -104 0
-2913 21 0
-2913 105 0
2913 -21 -105 0
-2914 22 0
-2914 106 0
2914 -22 -106 0
-2915 23 0
-2915 107 0
2915 -23 -107 0
-2916 24 0
-2916 108 0
2916 -24 -108 0
-2917 25 0
-2917 109 0
2917 -25 -109 0
-2918 26 0
-2918 110 0
2918 -26 -110 0
-2919 27 0
-2919 111 0
2919 -27 -111 0
-2920 28 0
-2920 112 0
2920 -28 -112 0
-2907 2921 0
-2921 2907 0
-2921 2922 0
-2908 2922 0
-2922 2921 2908 0
-2921 -2908 2923 0
-2923 2921 0
-2923 2908 0
-2922 2924 0
-2909 2924 0
-2924 2922 2909 0
-2923 2925 0
-2922 -2909 2925 0
-2925 2923 2922 0
-2925 2923 2909 0
-2923 -2909 2926 0
-2926 2923 0
-2926 2909 0
-2924 2927 0
-2910 2927 0
-2927 2924 2910 0
-2925 2928 0
-2924 -2910 2928 0
-2928 2925 2924 0
-2928 2925 2910 0
-2926 2929 0
-2925 -2910 2929 0
-2929 2926 2925 0
-2929 2926 2910 0
-2927 2930 0
-2911 2930 0
-2930 2927 2911 0
-2928 2931 0
-2927 -2911 2931 0
-2931 2928 2927 0
-2931 2928 2911 0
-2929 2932 0
-2928 -2911 2932 0
-2932 2929 2928 0
-2932 2929 2911 0
-2930 2933 0
-2912 2933 0
-2933 2930 2912 0
-2931 2934 0
-2930 -2912 2934 0
-2934 2931 2930 0
-2934 2931 2912 0
-2932 2935 0
-2931 -2912 2935 0
-2935 2932 2931 0
-2935 2932 2912 0
-2933 2936 0
-2913 2936 0
-2936 2933 2913 0
-2934 2937 0
-2933 -2913 2937 0
-2937 2934 2933 0
-2937 2934 2913 0
-2935 2938 0
-2934 -2913 2938 0
-2938 2935 2934 0
-2938 2935 2913 0
-2936 2939 0
-2914 2939 0
-2939 2936 2914 0
-2937 2940 0
-2936 -2914 2940 0
-2940 2937 2936 0
-2940 2937 2914 0
-2938 2941 0
-2937 -2914 2941 0
-2941 2938 2937 0
-2941 2938 2914 0
-2939 2942 0
-2915 2942 0
-2942 2939 2915 0
-2940 2943 0
-2939 -2915 2943 0
-2943 2940 2939 0
-2943 2940 2915 0
-2941 2944 0
-2940 -2915 2944 0
-2944 2941 2940 0
-2944 2941 2915 0
-2942 2945 0
-2916 2945 0
-2945 2942 2916 0
-2943 2946 0
-2942 -2916 2946 0
-2946 2943 2942 0
-2946 2943 2916 0
-2944 2947 0
-2943 -2916 2947 0
-2947 2944 2943 0
-2947 2944 2916 0
-2945 2948 0
-2917 2948 0
-2948 2945 2917 0
-2946 2949 0
-2945 -2917 2949 0
-2949 2946 2945 0
-2949 2946 2917 0
-2947 2950 0
-2946 -2917 2950 0
-2950 2947 2946 0
-2950 2947 2917 0
-2948 2951 0
-2918 2951 0
-2951 2948 2918 0
-2949 2952 0
-2948 -2918 2952 0
-2952 2949 2948 0
-2952 2949 2918 0
-2950 2953 0
-2949 -2918 2953 0
-2953 2950 2949 0
-2953 2950 2918 0
-2951 2954 0
-2919 2954 0
-2954 2951 2919 0
-2952 2955 0
-2951 -2919 2955 0
-2955 2952 2951 0
-2955 2952 2919 0
-2953 2956 0
-2952 -2919 2956 0
-2956 2953 2952 0
-2956 2953 2919 0
-2954 2957 0
-2920 2957 0
-2957 2954 2920 0
-2955 2958 0
-2954 -2920 2958 0
-2958 2955 2954 0
-2958 2955 2920 0
-2956 2959 0
-2955 -2920 2959 0
-2959 2956 2955 0
-2959 2956 2920 0
2959 0
-2960 15 0
-2960 113 0
2960 -15 -113 0
-2961 16 0
-2961 114 0
2961 -16 -114 0
-2962 17 0
-2962 115 0
2962 -17 -115 0
-2963 18 0
-2963 116 0
2963 -18 -116 0
-2964 19 0
-2964 117 0
2964 -19 -117 0
-2965 20 0
-2965 118 0
2965 -20 -118 0
-2966 21 0
-2966 119 0
2966 -21 -119 0
-2967 22 0
-2967 120 0
2967 -22 -120 0
-2968 23 0
-2968 121 0
2968 -23 -121 0
-2969 24 0
-2969 122 0
2969 -24 -122 0
-2970 25 0
-2970 123 0
2970 -25 -123 0
-2971 26 0
-2971 124 0
2971 -26 -124 0
-2972 27 0
-2972 125 0
2972 -27 -125 0
-2973 28 0
-2973 126 0
2973 -28 -126 0
-2960 2974 0
-2974 2960 0
-2974 2975 0
-2961 2975 0
-2975 2974 2961 0
-2974 -2961 2976 0
-2976 2974 0
-2976 2961 0
-2975 2977 0
-2962 2977 0
-2977 2975 2962 0
-2976 2978 0
-2975 -2962 2978 0
-2978 2976 2975 0
-2978 2976 2962 0
-2976 -2962 2979 0
-2979 2976 0
-2979 2962 0
-2977 2980 0
-2963 2980 0
-2980 2977 2963 0
-2978 2981 0
-2977 -2963 2981 0
-2981 2978 2977 0
-2981 2978 2963 0
-2979 2982 0
-2978 -2963 2982 0
-2982 2979 2978 0
-2982 2979 2963 0
-2980 2983 0
-2964 2983 0
-2983 2980 2964 0
-2981 2984 0
-2980 -2964 2984 0
-2984 2981 2980 0
-2984 2981 2964 0
-2982 2985 0
-2981 -2964 2985 0
-2985 2982 2981 0
-2985 2982 2964 0
-2983 2986 0
-2965 2986 0
-2986 2983 2965 0
-2984 2987 0
-2983 -2965 2987 0
-2987 2984 2983 0
-2987 2984 2965 0
-2985 2988 0
-2984 -2965 2988 0
-2988 2985 2984 0
-2988 2985 2965 0
-2986 2989 0
-2966 2989 0
-2989 2986 2966 0
-2987 2990 0
-2986 -2966 2990 0
-2990 2987 2986 0
-2990 2987 2966 0
-2988 2991 0
-2987 -2966 2991 0
-2991 2988 2987 0
-2991 2988 2966 0
-2989 2992 0
-2967 2992 0
-2992 2989 2967 0
-2990 2993 0
-2989 -2967 2993 0
-2993 2990 2989 0
-2993 2990 2967 0
-2991 2994 0
-2990 -2967 2994 0
-2994 2991 2990 0
-2994 2991 2967 0
-2992 2995 0
-2968 2995 0
-2995 2992 2968 0
-2993 2996 0
-2992 -2968 2996 0
-2996 2993 2992 0
-2996 2993 2968 0
-2994 2997 0
-2993 -2968 2997 0
-2997 2994 2993 0
-2997 2994 2968 0
-2995 2998 0
-2969 2998 0
-2998 2995 2969 0
-2996 2999 0
-2995 -2969 2999 0
-2999 2996 2995 0
-2999 2996 2969 0
-2997 3000 0
-2996 -2969 3000 0
-3000 2997 2996 0
-3000 2997 2969 0
-2998 3001 0
-2970 3001 0
-3001 2998 2970 0
-2999 3002 0
-2998 -2970 3002 0
-3002 2999 2998 0
-3002 2999 2970 0
-3000 3003 0
-2999 -2970 3003 0
-3003 3000 2999 0
-3003 3000 2970 0
-3001 3004 0
-2971 3004 0
-3004 3001 2971 0
-3002 3005 0
-3001 -2971 3005 0
-3005 3002 3001 0
-3005 3002 2971 0
-3003 3006 0
-3002 -2971 3006 0
-3006 3003 3002 0
-3006 3003 2971 0
-3004 3007 0
-2972 3007 0
-3007 3004 2972 0
-3005 3008 0
-3004 -2972 3008 0
-3008 3005 3004 0
-3008 3005 2972 0
-3006 3009 0
-3005 -2972 3009 0
-3009 3006 3005 0
-3009 3006 2972 0
-3007 3010 0
-2973 3010 0
-3010 3007 2973 0
-3008 3011 0
-3007 -2973 3011 0
-3011 3008 3007 0
-3011 3008 2973 0
-3009 3012 0
-3008 -2973 3012 0
-3012 3009 3008 0
-3012 3009 2973 0
3012 0
-3013 15 0
-3013 127 0
3013 -15 -127 0
-3014 16 0
-3014 128 0
3014 -16 -128 0
-3015 17 0
-3015 129 0
3015 -17 -129 0
-3016 18 0
-3016 130 0
3016 -18 -130 0
-3017 19 0
-3017 131 0
3017 -19 -131 0
-3018 20 0
-3018 132 0
3018 -20 -132 0
-3019 21 0
-3019 133 0
3019 -21 -133 0
-3020 22 0
-3020 134 0
3020 -22 -134 0
-3021 23 0
-3021 135 0
3021 -23 -135 0
-3022 24 0
-3022 136 0
3022 -24 -136 0
-3023 25 0
-3023 137 0
3023 -25 -137 0
-3024 26 0
-3024 138 0
3024 -26 -138 0
-3025 27 0
-3025 139 0
3025 -27 -139 0
-3026 28 0
-3026 140 0
3026 -28 -140 0
-3013 3027 0
-3027 3013 0
-3027 3028 0
-3014 3028 0
-3028 3027 3014 0
-3027 -3014 3029 0
-3029 3027 0
-3029 3014 0
-3028 3030 0
-3015 3030 0
-3030 3028 3015 0
-3029 3031 0
-3028 -3015 3031 0
-3031 3029 3028 0
-3031 3029 3015 0
-3029 -3015 3032 0
-3032 3029 0
-3032 3015 0
-3030 3033 0
-3016 3033 0
-3033 3030 3016 0
-3031 3034 0
-3030 -3016 3034 0
-3034 3031 3030 0
-3034 3031 3016 0
-3032 3035 0
-3031 -3016 3035 0
-3035 3032 3031 0
-3035 3032 3016 0
-3033 3036 0
-3017 3036 0
-3036 3033 3017 0
-3034 3037 0
-3033 -3017 3037 0
-3037 3034 3033 0
-3037 3034 3017 0
-3035 3038 0
-3034 -3017 3038 0
-3038 3035 3034 0
-3038 3035 3017 0
-3036 3039 0
-3018 3039 0
-3039 3036 3018 0
-3037 3040 0
-3036 -3018 3040 0
-3040 3037 3036 0
-3040 3037 3018 0
-3038 3041 0
-3037 -3018 3041 0
-3041 3038 3037 0
-3041 3038 3018 0
-3039 3042 0
-3019 3042 0
-3042 3039 3019 0
-3040 3043 0
-3039 -3019 3043 0
-3043 3040 3039 0
-3043 3040 3019 0
-3041 3044 0
-3040 -3019 3044 0
-3044 3041 3040 0
-3044 3041 3019 0
-3042 3045 0
-3020 3045 0
-3045 3042 3020 0
-3043 3046 0
-3042 -3020 3046 0
-3046 3043 3042 0
-3046 3043 3020 0
-3044 3047 0
-3043 -3020 3047 0
-3047 3044 3043 0
-3047 3044 3020 0
-3045 3048 0
-3021 3048 0
-3048 3045 3021 0
-3046 3049 0
-3045 -3021 3049 0
-3049 3046 3045 0
-3049 3046 3021 0
-3047 3050 0
-3046 -3021 3050 0
-3050 3047 3046 0
-3050 3047 3021 0
-3048 3051 0
-3022 3051 0
-3051 3048 3022 0
-3049 3052 0
-3048 -3022 3052 0
-3052 3049 3048 0
-3052 3049 3022 0
-3050 3053 0
-3049 -3022 3053 0
-3053 3050 3049 0
-3053 3050 3022 0
-3051 3054 0
-3023 3054 0
-3054 3051 3023 0
-3052 3055 0
-3051 -3023 3055 0
-3055 3052 3051 0
-3055 3052 3023 0
-3053 3056 0
-3052 -3023 3056 0
-3056 3053 3052 0
-3056 3053 3023 0
-3054 3057 0
-3024 3057 0
-3057 3054 3024 0
-3055 3058 0
-3054 -3024 3058 0
-3058 3055 3054 0
-3058 3055 3024 0
-3056 3059 0
-3055 -3024 3059 0
-3059 3056 3055 0
-3059 3056 3024 0
-3057 3060 0
-3025 3060 0
-3060 3057 3025 0
-3058 3061 0
-3057 -3025 3061 0
-3061 3058 3057 0
-3061 3058 3025 0
-3059 3062 0
-3058 -3025 3062 0
-3062 3059 3058 0
-3062 3059 3025 0
-3060 3063 0
-3026 3063 0
-3063 3060 3026 0
-3061 3064 0
-3060 -3026 3064 0
-3064 3061 3060 0
-3064 3061 3026 0
-3062 3065 0
-3061 -3026 3065 0
-3065 3062 3061 0
-3065 3062 3026 0
3065 0
-3066 15 0
-3066 141 0
3066 -15 -141 0
-3067 16 0
-3067 142 0
3067 -16 -142 0
-3068 17 0
-3068 143 0
3068 -17 -143 0
-3069 18 0
-3069 144 0
3069 -18 -144 0
-3070 19 0
-3070 145 0
3070 -19 -145 0
-3071 20 0
-3071 146 0
3071 -20 -146 0
-3072 21 0
-3072 147 0
3072 -21 -147 0
-3073 22 0
-3073 148 0
3073 -22 -148 0
-3074 23 0
-3074 149 0
3074 -23 -149 0
-3075 24 0
-3075 150 0
3075 -24 -150 0
-3076 25 0
-3076 151 0
3076 -25 -151 0
-3077 26 0
-3077 152 0
3077 -26 -152 0
-3078 27 0
-3078 153 0
3078 -27 -153 0
-3079 28 0
-3079 154 0
3079 -28 -154 0
-3066 3080 0
-3080 3066 0
-3080 3081 0
-3067 3081 0
-3081 3080 3067 0
-3080 -3067 3082 0
-3082 3080 0
-3082 3067 0
-3081 3083 0
-3068 3083 0
-3083 3081 3068 0
-3082 3084 0
-3081 -3068 3084 0
-3084 3082 3081 0
-3084 3082 3068 0
-3082 -3068 3085 0
-3085 3082 0
-3085 3068 0
-3083 3086 0
-3069 3086 0
-3086 3083 3069 0
-3084 3087 0
-3083 -3069 3087 0
-3087 3084 3083 0
-3087 3084 3069 0
-3085 3088 0
-3084 -3069 3088 0
-3088 3085 3084 0
-3088 3085 3069 0
-3086 3089 0
-3070 3089 0
-3089 3086 3070 0
-3087 3090 0
-3086 -3070 3090 0
-3090 3087 3086 0
-3090 3087 3070 0
-3088 3091 0
-3087 -3070 3091 0
-3091 3088 3087 0
-3091 3088 3070 0
-3089 3092 0
-3071 3092 0
-3092 3089 3071 0
-3090 3093 0
-3089 -3071 3093 0
-3093 3090 3089 0
-3093 3090 3071 0
-3091 3094 0
-3090 -3071 3094 0
-3094 3091 3090 0
-3094 3091 3071 0
-3092 3095 0
-3072 3095 0
-3095 3092 3072 0
-3093 3096 0
-3092 -3072 3096 0
-3096 3093 3092 0
-3096 3093 3072 0
-3094 3097 0
-3093 -3072 3097 0
-3097 3094 3093 0
-3097 3094 3072 0
-3095 3098 0
-3073 3098 0
-3098 3095 3073 0
-3096 3099 0
-3095 -3073 3099 0
-3099 3096 3095 0
-3099 3096 3073 0
-3097 3100 0
-3096 -3073 3100 0
-3100 3097 3096 0
-3100 3097 3073 0
-3098 3101 0
-3074 3101 0
-3101 3098 3074 0
-3099 3102 0
-3098 -3074 3102 0
-3102 3099 3098 0
-3102 3099 3074 0
-3100 3103 0
-3099 -3074 3103 0
-3103 3100 3099 0
-3103 3100 3074 0
-3101 3104 0
-3075 3104 0
-3104 3101 3075 0
-3102 3105 0
-3101 -3075 3105 0
-3105 3102 3101 0
-3105 3102 3075 0
-3103 3106 0
-3102 -3075 3106 0
-3106 3103 3102 0
-3106 3103 3075 0
-3104 3107 0
-3076 3107 0
-3107 3104 3076 0
-3105 3108 0
-3104 -3076 3108 0
-3108 3105 3104 0
-3108 3105 3076 0
-3106 3109 0
-3105 -3076 3109 0
-3109 3106 3105 0
-3109 3106 3076 0
-3107 3110 0
-3077 3110 0
-3110 3107 3077 0
-3108 3111 0
-3107 -3077 3111 0
-3111 3108 3107 0
-3111 3108 3077 0
-3109 3112 0
-3108 -3077 3112 0
-3112 3109 3108 0
-3112 3109 3077 0
-3110 3113 0
-3078 3113 0
-3113 3110 3078 0
-3111 3114 0
-3110 -3078 3114 0
-3114 3111 3110 0
-3114 3111 3078 0
-3112 3115 0
-3111 -3078 3115 0
-3115 3112 3111 0
-3115 3112 3078 0
-3113 3116 0
-3079 3116 0
-3116 3113 3079 0
-3114 3117 0
-3113 -3079 3117 0
-3117 3114 3113 0
-3117 3114 3079 0
-3115 3118 0
-3114 -3079 3118 0
-3118 3115 3114 0
-3118 3115 3079 0
3118 0
-3119 15 0
-3119 155 0
3119 -15 -155 0
-3120 16 0
-3120 156 0
3120 -16 -156 0
-3121 17 0
-3121 157 0
3121 -17 -157 0
-3122 18 0
-3122 158 0
3122 -18 -158 0
-3123 19 0
-3123 159 0
3123 -19 -159 0
-3124 20 0
-3124 160 0
3124 -20 -160 0
-3125 21 0
-3125 161 0
3125 -21 -161 0
-3126 22 0
-3126 162 0
3126 -22 -162 0
-3127 23 0
-3127 163 0
3127 -23 -163 0
-3128 24 0
-3128 164 0
3128 -24 -164 0
-3129 25 0
-3129 165 0
3129 -25 -165 0
-3130 26 0
-3130 166 0
3130 -26 -166 0
-3131 27 0
-3131 167 0
3131 -27 -167 0
-3132 28 0
-3132 168 0
3132 -28 -168 0
-3119 3133 0
-3133 3119 0
-3133 3134 0
-3120 3134 0
-3134 3133 3120 0
-3133 -3120 3135 0
-3135 3133 0
-3135 3120 0
-3134 3136 0
-3121 3136 0
-3136 3134 3121 0
-3135 3137 0
-3134 -3121 3137 0
-3137 3135 3134 0
-3137 3135 3121 0
-3135 -3121 3138 0
-3138 3135 0
-3138 3121 0
-3136 3139 0
-3122 3139 0
-3139 3136 3122 0
-3137 3140 0
-3136 -3122 3140 0
-3140 3137 3136 0
-3140 3137 3122 0
-3138 3141 0
-3137 -3122 3141 0
-3141 3138 3137 0
-3141 3138 3122 0
-3139 3142 0
-3123 3142 0
-3142 3139 3123 0
-3140 3143 0
-3139 -3123 3143 0
-3143 3140 3139 0
-3143 3140 3123 0
-3141 3144 0
-3140 -3123 3144 0
-3144 3141 3140 0
-3144 3141 3123 0
-3142 3145 0
-3124 3145 0
-3145 3142 3124 0
-3143 3146 0
-3142 -3124 3146 0
-3146 3143 3142 0
-3146 3143 3124 0
-3144 3147 0
-3143 -3124 3147 0
-3147 3144 3143 0
-3147 3144 3124 0
-3145 3148 0
-3125 3148 0
-3148 3145 3125 0
-3146 3149 0
-3145 -3125 3149 0
-3149 3146 3145 0
-3149 3146 3125 0
-3147 3150 0
-3146 -3125 3150 0
-3150 3147 3146 0
-3150 3147 3125 0
-3148 3151 0
-3126 3151 0
-3151 3148 3126 0
-3149 3152 0
-3148 -3126 3152 0
-3152 3149 3148 0
-3152 3149 3126 0
-3150 3153 0
-3149 -3126 3153 0
-3153 3150 3149 0
-3153 3150 3126 0
-3151 3154 0
-3127 3154 0
-3154 3151 3127 0
-3152 3155 0
-3151 -3127 3155 0
-3155 3152 3151 0
-3155 3152 3127 0
-3153 3156 0
-3152 -3127 3156 0
-3156 3153 3152 0
-3156 3153 3127 0
-3154 3157 0
-3128 3157 0
-3157 3154 3128 0
-3155 3158 0
-3154 -3128 3158 0
-3158 3155 3154 0
-3158 3155 3128 0
-3156 3159 0
-3155 -3128 3159 0
-3159 3156 3155 0
-3159 3156 3128 0
-3157 3160 0
-3129 3160 0
-3160 3157 3129 0
-3158 3161 0
-3157 -3129 3161 0
-3161 3158 3157 0
-3161 3158 3129 0
-3159 3162 0
-3158 -3129 3162 0
-3162 3159 3158 0
-3162 3159 3129 0
-3160 3163 0
-3130 3163 0
-3163 3160 3130 0
-3161 3164 0
-3160 -3130 3164 0
-3164 3161 3160 0
-3164 3161 3130 0
-3162 3165 0
-3161 -3130 3165 0
-3165 3162 3161 0
-3165 3162 3130 0
-3163 3166 0
-3131 3166 0
-3166 3163 3131 0
-3164 3167 0
-3163 -3131 3167 0
-3167 3164 3163 0
-3167 3164 3131 0
-3165 3168 0
-3164 -3131 3168 0
-3168 3165 3164 0
-3168 3165 3131 0
-3166 3169 0
-3132 3169 0
-3169 3166 3132 0
-3167 3170 0
-3166 -3132 3170 0
-3170 3167 3166 0
-3170 3167 3132 0
-3168 3171 0
-3167 -3132 3171 0
-3171 3168 3167 0
-3171 3168 3132 0
3171 0
-3172 29 0
-3172 43 0
3172 -29 -43 0
-3173 30 0
-3173 44 0
3173 -30 -44 0
-3174 31 0
-3174 45 0
3174 -31 -45 0
-3175 32 0
-3175 46 0
3175 -32 -46 0
-3176 33 0
-3176 47 0
3176 -33 -47 0
-3177 34 0
-3177 48 0
3177 -34 -48 0
-3178 35 0
-3178 49 0
3178 -35 -49 0
-3179 36 0
-3179 50 0
3179 -36 -50 0
-3180 37 0
-3180 51 0
3180 -37 -51 0
-3181 38 0
-3181 52 0
3181 -38 -52 0
-3182 39 0
-3182 53 0
3182 -39 -53 0
-3183 40 0
-3183 54 0
3183 -40 -54 0
-3184 41 0
-3184 55 0
3184 -41 -55 0
-3185 42 0
-3185 56 0
3185 -42 -56 0
-3172 3186 0
-3186 3172 0
-3186 3187 0
-3173 3187 0
-3187 3186 3173 0
-3186 -3173 3188 0
-3188 3186 0
-3188 3173 0
-3187 3189 0
-3174 3189 0
-3189 3187 3174 0
-3188 3190 0
-3187 -3174 3190 0
-3190 3188 3187 0
-3190 3188 3174 0
-3188 -3174 3191 0
-3191 3188 0
-3191 3174 0
-3189 3192 0
-3175 3192 0
-3192 3189 3175 0
-3190 3193 0
-3189 -3175 3193 0
-3193 3190 3189 0
-3193 3190 3175 0
-3191 3194 0
-3190 -3175 3194 0
-3194 3191 3190 0
-3194 3191 3175 0
-3192 3195 0
-3176 3195 0
-3195 3192 3176 0
-3193 3196 0
-3192 -3176 3196 0
-3196 3193 3192 0
-3196 3193 3176 0
-3194 3197 0
-3193 -3176 3197 0
-3197 3194 3193 0
-3197 3194 3176 0
-3195 3198 0
-3177 3198 0
-3198 3195 3177 0
-3196 3199 0
-3195 -3177 3199 0
-3199 3196 3195 0
-3199 3196 3177 0
-3197 3200 0
-3196 -3177 3200 0
-3200 3197 3196 0
-3200 3197 3177 0
-3198 3201 0
-3178 3201 0
-3201 3198 3178 0
-3199 3202 0
-3198 -3178 3202 0
-3202 3199 3198 0
-3202 3199 3178 0
-3200 3203 0
-3199 -3178 3203 0
-3203 3200 3199 0
-3203 3200 3178 0
-3201 3204 0
-3179 3204 0
-3204 3201 3179 0
-3202 3205 0
-3201 -3179 3205 0
-3205 3202 3201 0
-3205 3202 3179 0
-3203 3206 0
-3202 -3179 3206 0
-3206 3203 3202 0
-3206 3203 3179 0
-3204 3207 0
-3180 3207 0
-3207 3204 3180 0
-3205 3208 0
-3204 -3180 3208 0
-3208 3205 3204 0
-3208 3205 3180 0
-3206 3209 0
-3205 -3180 3209 0
-3209 3206 3205 0
-3209 3206 3180 0
-3207 3210 0
-3181 3210 0
-3210 3207 3181 0
-3208 3211 0
-3207 -3181 3211 0
-3211 3208 3207 0
-3211 3208 3181 0
-3209 3212 0
-3208 -3181 3212 0
-3212 3209 3208 0
-3212 3209 3181 0
-3210 3213 0
-3182 3213 0
-3213 3210 3182 0
-3211 3214 0
-3210 -3182 3214 0
-3214 3211 3210 0
-3214 3211 3182 0
-3212 3215 0
-3211 -3182 3215 0
-3215 3212 3211 0
-3215 3212 3182 0
-3213 3216 0
-3183 3216 0
-3216 3213 3183 0
-3214 3217 0
-3213 -3183 3217 0
-3217 3214 3213 0
-3217 3214 3183 0
-3215 3218 0
-3214 -3183 3218 0
-3218 3215 3214 0
-3218 3215 3183 0
-3216 3219 0
-3184 3219 0
-3219 3216 3184 0
-3217 3220 0
-3216 -3184 3220 0
-3220 3217 3216 0
-3220 3217 3184 0
-3218 3221 0
-3217 -3184 3221 0
-3221 3218 3217 0
-3221 3218 3184 0
-3219 3222 0
-3185 3222 0
-3222 3219 3185 0
-3220 3223 0
-3219 -3185 3223 0
-3223 3220 3219 0
-3223 3220 3185 0
-3221 3224 0
-3220 -3185 3224 0
-3224 3221 3220 0
-3224 3221 3185 0
3224 0
-3225 29 0
-3225 57 0
3225 -29 -57 0
-3226 30 0
-3226 58 0
3226 -30 -58 0
-3227 31 0
-3227 59 0
3227 -31 -59 0
-3228 32 0
-3228 60 0
3228 -32 -60 0
-3229 33 0
-3229 61 0
3229 -33 -61 0
-3230 34 0
-3230 62 0
3230 -34 -62 0
-3231 35 0
-3231 63 0
3231 -35 -63 0
-3232 36 0
-3232 64 0
3232 -36 -64 0
-3233 37 0
-3233 65 0
3233 -37 -65 0
-3234 38 0
-3234 66 0
3234 -38 -66 0
-3235 39 0
-3235 67 0
3235 -39 -67 0
-3236 40 0
-3236 68 0
3236 -40 -68 0
-3237 41 0
-3237 69 0
3237 -41 -69 0
-3238 42 0
-3238 70 0
3238 -42 -70 0
-3225 3239 0
-3239 3225 0
-3239 3240 0
-3226 3240 0
-3240 3239 3226 0
-3239 -3226 3241 0
-3241 3239 0
-3241 3226 0
-3240 3242 0
-3227 3242 0
-3242 3240 3227 0
-3241 3243 0
-3240 -3227 3243 0
-3243 3241 3240 0
-3243 3241 3227 0
-3241 -3227 3244 0
-3244 3241 0
-3244 3227 0
-3242 3245 0
-3228 3245 0
-3245 3242 3228 0
-3243 3246 0
-3242 -3228 3246 0
-3246 3243 3242 0
-3246 3243 3228 0
-3244 3247 0
-3243 -3228 3247 0
-3247 3244 3243 0
-3247 3244 3228 0
-3245 3248 0
-3229 3248 0
-3248 3245 3229 0
-3246 3249 0
-3245 -3229 3249 0
-3249 3246 3245 0
-3249 3246 3229 0
-3247 3250 0
-3246 -3229 3250 0
-3250 3247 3246 0
-3250 3247 3229 0
-3248 3251 0
-3230 3251 0
-3251 3248 3230 0
-3249 3252 0
-3248 -3230 3252 0
-3252 3249 3248 0
-3252 3249 3230 0
-3250 3253 0
-3249 -3230 3253 0
-3253 3250 3249 0
-3253 3250 3230 0
-3251 3254 0
-3231 3254 0
-3254 3251 3231 0
-3252 3255 0
-3251 -3231 3255 0
-3255 3252 3251 0
-3255 3252 3231 0
-3253 3256 0
-3252 -3231 3256 0
-3256 3253 3252 0
-3256 3253 3231 0
-3254 3257 0
-3232 3257 0
-3257 3254 3232 0
-3255 3258 0
-3254 -3232 3258 0
-3258 3255 3254 0
-3258 3255 3232 0
-3256 3259 0
-3255 -3232 3259 0
-3259 3256 3255 0
-3259 3256 3232 0
-3257 3260 0
-3233 3260 0
-3260 3257 3233 0
-3258 3261 0
-3257 -3233 3261 0
-3261 3258 3257 0
-3261 3258 3233 0
-3259 3262 0
-3258 -3233 3262 0
-3262 3259 3258 0
-3262 3259 3233 0
-3260 3263 0
-3234 3263 0
-3263 3260 3234 0
-3261 3264 0
-3260 -3234 3264 0
-3264 3261 3260 0
-3264 3261 3234 0
-3262 3265 0
-3261 -3234 3265 0
-3265 3262 3261 0
-3265 3262 3234 0
-3263 3266 0
-3235 3266 0
-3266 3263 3235 0
-3264 3267 0
-3263 -3235 3267 0
-3267 3264 3263 0
-3267 3264 3235 0
-3265 3268 0
-3264 -3235 3268 0
-3268 3265 3264 0
-3268 3265 3235 0
-3266 3269 0
-3236 3269 0
-3269 3266 3236 0
-3267 3270 0
-3266 -3236 3270 0
-3270 3267 3266 0
-3270 3267 3236 0
-3268 3271 0
-3267 -3236 3271 0
-3271 3268 3267 0
-3271 3268 3236 0
-3269 3272 0
-3237 3272 0
-3272 3269 3237 0
-3270 3273 0
-3269 -3237 3273 0
-3273 3270 3269 0
-3273 3270 3237 0
-3271 3274 0
-3270 -3237 3274 0
-3274 3271 3270 0
-3274 3271 3237 0
-3272 3275 0
-3238 3275 0
-3275 3272 3238 0
-3273 3276 0
-3272 -3238 3276 0
-3276 3273 3272 0
-3276 3273 3238 0
-3274 3277 0
-3273 -3238 3277 0
-3277 3274 3273 0
-3277 3274 3238 0
3277 0
-3278 29 0
-3278 71 0
3278 -29 -71 0
-3279 30 0
-3279 72 0
3279 -30 -72 0
-3280 31 0
-3280 73 0
3280 -31 -73 0
-3281 32 0
-3281 74 0
3281 -32 -74 0
-3282 33 0
-3282 75 0
3282 -33 -75 0
-3283 34 0
-3283 76 0
3283 -34 -76 0
-3284 35 0
-3284 77 0
3284 -35 -77 0
-3285 36 0
-3285 78 0
3285 -36 -78 0
-3286 37 0
-3286 79 0
3286 -37 -79 0
-3287 38 0
-3287 80 0
3287 -38 -80 0
-3288 39 0
-3288 81 0
3288 -39 -81 0
-3289 40 0
-3289 82 0
3289 -40 -82 0
-3290 41 0
-3290 83 0
3290 -41 -83 0
-3291 42 0
-3291 84 0
3291 -42 -84 0
-3278 3292 0
-3292 3278 0
-3292 3293 0
-3279 3293 0
-3293 3292 3279 0
-3292 -3279 3294 0
-3294 3292 0
-3294 3279 0
-3293 3295 0
-3280 3295 0
-3295 3293 3280 0
-3294 3296 0
-3293 -3280 3296 0
-3296 3294 3293 0
-3296 3294 3280 0
-3294 -3280 3297 0
-3297 3294 0
-3297 3280 0
-3295 3298 0
-3281 3298 0
-3298 3295 3281 0
-3296 3299 0
-3295 -3281 3299 0
-3299 3296 3295 0
-3299 3296 3281 0
-3297 3300 0
-3296 -3281 3300 0
-3300 3297 3296 0
-3300 3297 3281 0
-3298 3301 0
-3282 3301 0
-3301 3298 3282 0
-3299 3302 0
-3298 -3282 3302 0
-3302 3299 3298 0
-3302 3299 3282 0
-3300 3303 0
-3299 -3282 3303 0
-3303 3300 3299 0
-3303 3300 3282 0
-3301 3304 0
-3283 3304 0
-3304 3301 3283 0
-3302 3305 0
-3301 -3283 3305 0
-3305 3302 3301 0
-3305 3302 3283 0
-3303 3306 0
-3302 -3283 3306 0
-3306 3303 3302 0
-3306 3303 3283 0
-3304 3307 0
-3284 3307 0
-3307 3304 3284 0
-3305 3308 0
-3304 -3284 3308 0
-3308 3305 3304 0
-3308 3305 3284 0
-3306 3309 0
-3305 -3284 3309 0
-3309 3306 3305 0
-3309 3306 3284 0
-3307 3310 0
-3285 3310 0
-3310 3307 3285 0
-3308 3311 0
-3307 -3285 3311 0
-3311 3308 3307 0
-3311 3308 3285 0
-3309 3312 0
-3308 -3285 3312 0
-3312 3309 3308 0
-3312 3309 3285 0
-3310 3313 0
-3286 3313 0
-3313 3310 3286 0
-3311 3314 0
-3310 -3286 3314 0
-3314 3311 3310 0
-3314 3311 3286 0
-3312 3315 0
-3311 -3286 3315 0
-3315 3312 3311 0
-3315 3312 3286 0
-3313 3316 0
-3287 3316 0
-3316 3313 3287 0
-3314 3317 0
-3313 -3287 3317 0
-3317 3314 3313 0
-3317 3314 3287 0
-3315 3318 0
-3314 -3287 3318 0
-3318 3315 3314 0
-3318 3315 3287 0
-3316 3319 0
-3288 3319 0
-3319 3316 3288 0
-3317 3320 0
-3316 -3288 3320 0
-3320 3317 3316 0
-3320 3317 3288 0
-3318 3321 0
-3317 -3288 3321 0
-3321 3318 3317 0
-3321 3318 3288 0
-3319 3322 0
-3289 3322 0
-3322 3319 3289 0
-3320 3323 0
-3319 -3289 3323 0
-3323 3320 3319 0
-3323 3320 3289 0
-3321 3324 0
-3320 -3289 3324 0
-3324 3321 3320 0
-3324 3321 3289 0
-3322 3325 0
-3290 3325 0
-3325 3322 3290 0
-3323 3326 0
-3322 -3290 3326 0
-3326 3323 3322 0
-3326 3323 3290 0
-3324 3327 0
-3323 -3290 3327 0
-3327 3324 3323 0
-3327 3324 3290 0
-3325 3328 0
-3291 3328 0
-3328 3325 3291 0
-3326 3329 0
-3325 -3291 3329 0
-3329 3326 3325 0
-3329 3326 3291 0
-3327 3330 0
-3326 -3291 3330 0
-3330 3327 3326 0
-3330 3327 3291 0
3330 0
-3331 29 0
-3331 85 0
3331 -29 -85 0
-3332 30 0
-3332 86 0
3332 -30 -86 0
-3333 31 0
-3333 87 0
3333 -31 -87 0
-3334 32 0
-3334 88 0
3334 -32 -88 0
-3335 33 0
-3335 89 0
3335 -33 -89 0
-3336 34 0
-3336 90 0
3336 -34 -90 0
-3337 35 0
-3337 91 0
3337 -35 -91 0
-3338 36 0
-3338 92 0
3338 -36 -92 0
-3339 37 0
-3339 93 0
3339 -37 -93 0
-3340 38 0
-3340 94 0
3340 -38 -94 0
-3341 39 0
-3341 95 0
3341 -39 -95 0
-3342 40 0
-3342 96 0
3342 -40 -96 0
-3343 41 0
-3343 97 0
3343 -41 -97 0
-3344 42 0
-3344 98 0
3344 -42 -98 0
-3331 3345 0
-3345 3331 0
-3345 3346 0
-3332 3346 0
-3346 3345 3332 0
-3345 -3332 3347 0
-3347 3345 0
-3347 3332 0
-3346 3348 0
-3333 3348 0
-3348 3346 3333 0
-3347 3349 0
-3346 -3333 3349 0
-3349 3347 3346 0
-3349 3347 3333 0
-3347 -3333 3350 0
-3350 3347 0
-3350 3333 0
-3348 3351 0
-3334 3351 0
-3351 3348 3334 0
-3349 3352 0
-3348 -3334 3352 0
-3352 3349 3348 0
-3352 3349 3334 0
-3350 3353 0
-3349 -3334 3353 0
-3353 3350 3349 0
-3353 3350 3334 0
-3351 3354 0
-3335 3354 0
-3354 3351 3335 0
-3352 3355 0
-3351 -3335 3355 0
-3355 3352 3351 0
-3355 3352 3335 0
-3353 3356 0
-3352 -3335 3356 0
-3356 3353 3352 0
-3356 3353 3335 0
-3354 3357 0
-3336 3357 0
-3357 3354 3336 0
-3355 3358 0
-3354 -3336 3358 0
-3358 3355 3354 0
-3358 3355 3336 0
-3356 3359 0
-3355 -3336 3359 0
-3359 3356 3355 0
-3359 3356 3336 0
-3357 3360 0
-3337 3360 0
-3360 3357 3337 0
-3358 3361 0
-3357 -3337 3361 0
-3361 3358 3357 0
-3361 3358 3337 0
-3359 3362 0
-3358 -3337 3362 0
-3362 3359 3358 0
-3362 3359 3337 0
-3360 3363 0
-3338 3363 0
-3363 3360 3338 0
-3361 3364 0
-3360 -3338 3364 0
-3364 3361 3360 0
-3364 3361 3338 0
-3362 3365 0
-3361 -3338 3365 0
-3365 3362 3361 0
-3365 3362 3338 0
-3363 3366 0
-3339 3366 0
-3366 3363 3339 0
-3364 3367 0
-3363 -3339 3367 0
-3367 3364 3363 0
-3367 3364 3339 0
-3365 3368 0
-3364 -3339 3368 0
-3368 3365 3364 0
-3368 3365 3339 0
-3366 3369 0
-3340 3369 0
-3369 3366 3340 0
-3367 3370 0
-3366 -3340 3370 0
-3370 3367 3366 0
-3370 3367 3340 0
-3368 3371 0
-3367 -3340 3371 0
-3371 3368 3367 0
-3371 3368 3340 0
-3369 3372 0
-3341 3372 0
-3372 3369 3341 0
-3370 3373 0
-3369 -3341 3373 0
-3373 3370 3369 0
-3373 3370 3341 0
-3371 3374 0
-3370 -3341 3374 0
-3374 3371 3370 0
-3374 3371 3341 0
-3372 3375 0
-3342 3375 0
-3375 3372 3342 0
-3373 3376 0
-3372 -3342 3376 0
-3376 3373 3372 0
-3376 3373 3342 0
-3374 3377 0
-3373 -3342 3377 0
-3377 3374 3373 0
-3377 3374 3342 0
-3375 3378 0
-3343 3378 0
-3378 3375 3343 0
-3376 3379 0
-3375 -3343 3379 0
-3379 3376 3375 0
-3379 3376 3343 0
-3377 3380 0
-3376 -3343 3380 0
-3380 3377 3376 0
-3380 3377 3343 0
-3378 3381 0
-3344 3381 0
-3381 3378 3344 0
-3379 3382 0
-3378 -3344 3382 0
-3382 3379 3378 0
-3382 3379 3344 0
-3380 3383 0
-3379 -3344 3383 0
-3383 3380 3379 0
-3383 3380 3344 0
3383 0
-3384 29 0
-3384 99 0
3384 -29 -99 0
-3385 30 0
-3385 100 0
3385 -30 -100 0
-3386 31 0
-3386 101 0
3386 -31 -101 0
-3387 32 0
-3387 102 0
3387 -32 -102 0
-3388 33 0
-3388 103 0
3388 -33 -103 0
-3389 34 0
-3389 104 0
3389 -34 -104 0
-3390 35 0
-3390 105 0
3390 -35 -105 0
-3391 36 0
-3391 106 0
3391 -36 -106 0
-3392 37 0
-3392 107 0
3392 -37 -107 0
-3393 38 0
-3393 108 0
3393 -38 -108 0
-3394 39 0
-3394 109 0
3394 -39 -109 0
-3395 40 0
-3395 110 0
3395 -40 -110 0
-3396 41 0
-3396 111 0
3396 -41 -111 0
-3397 42 0
-3397 112 0
3397 -42 -112 0
-3384 3398 0
-3398 3384 0
-3398 3399 0
-3385 3399 0
-3399 3398 3385 0
-3398 -3385 3400 0
-3400 3398 0
-3400 3385 0
-3399 3401 0
-3386 3401 0
-3401 3399 3386 0
-3400 3402 0
-3399 -3386 3402 0
-3402 3400 3399 0
-3402 3400 3386 0
-3400 -3386 3403 0
-3403 3400 0
-3403 3386 0
-3401 3404 0
-3387 3404 0
-3404 3401 3387 0
-3402 3405 0
-3401 -3387 3405 0
-3405 3402 3401 0
-3405 3402 3387 0
-3403 3406 0
-3402 -3387 3406 0
-3406 3403 3402 0
-3406 3403 3387 0
-3404 3407 0
-3388 3407 0
-3407 3404 3388 0
-3405 3408 0
-3404 -3388 3408 0
-3408 3405 3404 0
-3408 3405 3388 0
-3406 3409 0
-3405 -3388 3409 0
-3409 3406 3405 0
-3409 3406 3388 0
-3407 3410 0
-3389 3410 0
-3410 3407 3389 0
-3408 3411 0
-3407 -3389 3411 0
-3411 3408 3407 0
-3411 3408 3389 0
-3409 3412 0
-3408 -3389 3412 0
-3412 3409 3408 0
-3412 3409 3389 0
-3410 3413 0
-3390 3413 0
-3413 3410 3390 0
-3411 3414 0
-3410 -3390 3414 0
-3414 3411 3410 0
-3414 3411 3390 0
-3412 3415 0
-3411 -3390 3415 0
-3415 3412 3411 0
-3415 3412 3390 0
-3413 3416 0
-3391 3416 0
-3416 3413 3391 0
-3414 3417 0
-3413 -3391 3417 0
-3417 3414 3413 0
-3417 3414 3391 0
-3415 3418 0
-3414 -3391 3418 0
-3418 3415 3414 0
-3418 3415 3391 0
-3416 3419 0
-3392 3419 0
-3419 3416 3392 0
-3417 3420 0
-3416 -3392 3420 0
-3420 3417 3416 0
-3420 3417 3392 0
-3418 3421 0
-3417 -3392 3421 0
-3421 3418 3417 0
-3421 3418 3392 0
-3419 3422 0
-3393 3422 0
-3422 3419 3393 0
-3420 3423 0
-3419 -3393 3423 0
-3423 3420 3419 0
-3423 3420 3393 0
-3421 3424 0
-3420 -3393 3424 0
-3424 3421 3420 0
-3424 3421 3393 0
-3422 3425 0
-3394 3425 0
-3425 3422 3394 0
-3423 3426 0
-3422 -3394 3426 0
-3426 3423 3422 0
-3426 3423 3394 0
-3424 3427 0
-3423 -3394 3427 0
-3427 3424 3423 0
-3427 3424 3394 0
-3425 3428 0
-3395 3428 0
-3428 3425 3395 0
-3426 3429 0
-3425 -3395 3429 0
-3429 3426 3425 0
-3429 3426 3395 0
-3427 3430 0
-3426 -3395 3430 0
-3430 3427 3426 0
-3430 3427 3395 0
-3428 3431 0
-3396 3431 0
-3431 3428 3396 0
-3429 3432 0
-3428 -3396 3432 0
-3432 3429 3428 0
-3432 3429 3396 0
-3430 3433 0
-3429 -3396 3433 0
-3433 3430 3429 0
-3433 3430 3396 0
-3431 3434 0
-3397 3434 0
-3434 3431 3397 0
-3432 3435 0
-3431 -3397 3435 0
-3435 3432 3431 0
-3435 3432 3397 0
-3433 3436 0
-3432 -3397 3436 0
-3436 3433 3432 0
-3436 3433 3397 0
3436 0
-3437 29 0
-3437 113 0
3437 -29 -113 0
-3438 30 0
-3438 114 0
3438 -30 -114 0
-3439 31 0
-3439 115 0
3439 -31 -115 0
-3440 32 0
-3440 116 0
3440 -32 -116 0
-3441 33 0
-3441 117 0
3441 -33 -117 0
-3442 34 0
-3442 118 0
3442 -34 -118 0
-3443 35 0
-3443 119 0
3443 -35 -119 0
-3444 36 0
-3444 120 0
3444 -36 -120 0
-3445 37 0
-3445 121 0
3445 -37 -121 0
-3446 38 0
-3446 122 0
3446 -38 -122 0
-3447 39 0
-3447 123 0
3447 -39 -123 0
-3448 40 0
-3448 124 0
3448 -40 -124 0
-3449 41 0
-3449 125 0
3449 -41 -125 0
-3450 42 0
-3450 126 0
3450 -42 -126 0
-3437 3451 0
-3451 3437 0
-3451 3452 0
-3438 3452 0
-3452 3451 3438 0
-3451 -3438 3453 0
-3453 3451 0
-3453 3438 0
-3452 3454 0
-3439 3454 0
-3454 3452 3439 0
-3453 3455 0
-3452 -3439 3455 0
-3455 3453 3452 0
-3455 3453 3439 0
-3453 -3439 3456 0
-3456 3453 0
-3456 3439 0
-3454 3457 0
-3440 3457 0
-3457 3454 3440 0
-3455 3458 0
-3454 -3440 3458 0
-3458 3455 3454 0
-3458 3455 3440 0
-3456 3459 0
-3455 -3440 3459 0
-3459 3456 3455 0
-3459 3456 3440 0
-3457 3460 0
-3441 3460 0
-3460 3457 3441 0
-3458 3461 0
-3457 -3441 3461 0
-3461 3458 3457 0
-3461 3458 3441 0
-3459 3462 0
-3458 -3441 3462 0
-3462 3459 3458 0
-3462 3459 3441 0
-3460 3463 0
-3442 3463 0
-3463 3460 3442 0
-3461 3464 0
-3460 -3442 3464 0
-3464 3461 3460 0
-3464 3461 3442 0
-3462 3465 0
-3461 -3442 3465 0
-3465 3462 3461 0
-3465 3462 3442 0
-3463 3466 0
-3443 3466 0
-3466 3463 3443 0
-3464 3467 0
-3463 -3443 3467 0
-3467 3464 3463 0
-3467 3464 3443 0
-3465 3468 0
-3464 -3443 3468 0
-3468 3465 3464 0
-3468 3465 3443 0
-3466 3469 0
-3444 3469 0
-3469 3466 3444 0
-3467 3470 0
-3466 -3444 3470 0
-3470 3467 3466 0
-3470 3467 3444 0
-3468 3471 0
-3467 -3444 3471 0
-3471 3468 3467 0
-3471 3468 3444 0
-3469 3472 0
-3445 3472 0
-3472 3469 3445 0
-3470 3473 0
-3469 -3445 3473 0
-3473 3470 3469 0
-3473 3470 3445 0
-3471 3474 0
-3470 -3445 3474 0
-3474 3471 3470 0
-3474 3471 3445 0
-3472 3475 0
-3446 3475 0
-3475 3472 3446 0
-3473 3476 0
-3472 -3446 3476 0
-3476 3473 3472 0
-3476 3473 3446 0
-3474 3477 0
-3473 -3446 3477 0
-3477 3474 3473 0
-3477 3474 3446 0
-3475 3478 0
-3447 3478 0
-3478 3475 3447 0
-3476 3479 0
-3475 -3447 3479 0
-3479 3476 3475 0
-3479 3476 3447 0
-3477 3480 0
-3476 -3447 3480 0
-3480 3477 3476 0
-3480 3477 3447 0
-3478 3481 0
-3448 3481 0
-3481 3478 3448 0
-3479 3482 0
-3478 -3448 3482 0
-3482 3479 3478 0
-3482 3479 3448 0
-3480 3483 0
-3479 -3448 3483 0
-3483 3480 3479 0
-3483 3480 3448 0
-3481 3484 0
-3449 3484 0
-3484 3481 3449 0
-3482 3485 0
-3481 -3449 3485 0
-3485 3482 3481 0
-3485 3482 3449 0
-3483 3486 0
-3482 -3449 3486 0
-3486 3483 3482 0
-3486 3483 3449 0
-3484 3487 0
-3450 3487 0
-3487 3484 3450 0
-3485 3488 0
-3484 -3450 3488 0
-3488 3485 3484 0
-3488 3485 3450 0
-3486 3489 0
-3485 -3450 3489 0
-3489 3486 3485 0
-3489 3486 3450 0
3489 0
-3490 29 0
-3490 127 0
3490 -29 -127 0
-3491 30 0
-3491 128 0
3491 -30 -128 0
-3492 31 0
-3492 129 0
3492 -31 -129 0
-3493 32 0
-3493 130 0
3493 -32 -130 0
-3494 33 0
-3494 131 0
3494 -33 -131 0
-3495 34 0
-3495 132 0
3495 -34 -132 0
-3496 35 0
-3496 133 0
3496 -35 -133 0
-3497 36 0
-3497 134 0
3497 -36 -134 0
-3498 37 0
-3498 135 0
3498 -37 -135 0
-3499 38 0
-3499 136 0
3499 -38 -136 0
-3500 39 0
-3500 137 0
3500 -39 -137 0
-3501 40 0
-3501 138 0
3501 -40 -138 0
-3502 41 0
-3502 139 0
3502 -41 -139 0
-3503 42 0
-3503 140 0
3503 -42 -140 0
-3490 3504 0
-3504 3490 0
-3504 3505 0
-3491 3505 0
-3505 3504 3491 0
-3504 -3491 3506 0
-3506 3504 0
-3506 3491 0
-3505 3507 0
-3492 3507 0
-3507 3505 3492 0
-3506 3508 0
-3505 -3492 3508 0
-3508 3506 3505 0
-3508 3506 3492 0
-3506 -3492 3509 0
-3509 3506 0
-3509 3492 0
-3507 3510 0
-3493 3510 0
-3510 3507 3493 0
-3508 3511 0
-3507 -3493 3511 0
-3511 3508 3507 0
-3511 3508 3493 0
-3509 3512 0
-3508 -3493 3512 0
-3512 3509 3508 0
-3512 3509 3493 0
-3510 3513 0
-3494 3513 0
-3513 3510 3494 0
-3511 3514 0
-3510 -3494 3514 0
-3514 3511 3510 0
-3514 3511 3494 0
-3512 3515 0
-3511 -3494 3515 0
-3515 3512 3511 0
-3515 3512 3494 0
-3513 3516 0
-3495 3516 0
-3516 3513 3495 0
-3514 3517 0
-3513 -3495 3517 0
-3517 3514 3513 0
-3517 3514 3495 0
-3515 3518 0
-3514 -3495 3518 0
-3518 3515 3514 0
-3518 3515 3495 0
-3516 3519 0
-3496 3519 0
-3519 3516 3496 0
-3517 3520 0
-3516 -3496 3520 0
-3520 3517 3516 0
-3520 3517 3496 0
-3518 3521 0
-3517 -3496 3521 0
-3521 3518 3517 0
-3521 3518 3496 0
-3519 3522 0
-3497 3522 0
-3522 3519 3497 0
-3520 3523 0
-3519 -3497 3523 0
-3523 3520 3519 0
-3523 3520 3497 0
-3521 3524 0
-3520 -3497 3524 0
-3524 3521 3520 0
-3524 3521 3497 0
-3522 3525 0
-3498 3525 0
-3525 3522 3498 0
-3523 3526 0
-3522 -3498 3526 0
-3526 3523 3522 0
-3526 3523 3498 0
-3524 3527 0
-3523 -3498 3527 0
-3527 3524 3523 0
-3527 3524 3498 0
-3525 3528 0
-3499 3528 0
-3528 3525 3499 0
-3526 3529 0
-3525 -3499 3529 0
-3529 3526 3525 0
-3529 3526 3499 0
-3527 3530 0
-3526 -3499 3530 0
-3530 3527 3526 0
-3530 3527 3499 0
-3528 3531 0
-3500 3531 0
-3531 3528 3500 0
-3529 3532 0
-3528 -3500 3532 0
-3532 3529 3528 0
-3532 3529 3500 0
-3530 3533 0
-3529 -3500 3533 0
-3533 3530 3529 0
-3533 3530 3500 0
-3531 3534 0
-3501 3534 0
-3534 3531 3501 0
-3532 3535 0
-3531 -3501 3535 0
-3535 3532 3531 0
-3535 3532 3501 0
-3533 3536 0
-3532 -3501 3536 0
-3536 3533 3532 0
-3536 3533 3501 0
-3534 3537 0
-3502 3537 0
-3537 3534 3502 0
-3535 3538 0
-3534 -3502 3538 0
-3538 3535 3534 0
-3538 3535 3502 0
-3536 3539 0
-3535 -3502 3539 0
-3539 3536 3535 0
-3539 3536 3502 0
-3537 3540 0
-3503 3540 0
-3540 3537 3503 0
-3538 3541 0
-3537 -3503 3541 0
-3541 3538 3537 0
-3541 3538 3503 0
-3539 3542 0
-3538 -3503 3542 0
-3542 3539 3538 0
-3542 3539 3503 0
3542 0
-3543 29 0
-3543 141 0
3543 -29 -141 0
-3544 30 0
-3544 142 0
3544 -30 -142 0
-3545 31 0
-3545 143 0
3545 -31 -143 0
-3546 32 0
-3546 144 0
3546 -32 -144 0
-3547 33 0
-3547 145 0
3547 -33 -145 0
-3548 34 0
-3548 146 0
3548 -34 -146 0
-3549 35 0
-3549 147 0
3549 -35 -147 0
-3550 36 0
-3550 148 0
3550 -36 -148 0
-3551 37 0
-3551 149 0
3551 -37 -149 0
-3552 38 0
-3552 150 0
3552 -38 -150 0
-3553 39 0
-3553 151 0
3553 -39 -151 0
-3554 40 0
-3554 152 0
3554 -40 -152 0
-3555 41 0
-3555 153 0
3555 -41 -153 0
-3556 42 0
-3556 154 0
3556 -42 -154 0
-3543 3557 0
-3557 3543 0
-3557 3558 0
-3544 3558 0
-3558 3557 3544 0
-3557 -3544 3559 0
-3559 3557 0
-3559 3544 0
-3558 3560 0
-3545 3560 0
-3560 3558 3545 0
-3559 3561 0
-3558 -3545 3561 0
-3561 3559 3558 0
-3561 3559 3545 0
-3559 -3545 3562 0
-3562 3559 0
-3562 3545 0
-3560 3563 0
-3546 3563 0
-3563 3560 3546 0
-3561 3564 0
-3560 -3546 3564 0
-3564 3561 3560 0
-3564 3561 3546 0
-3562 3565 0
-3561 -3546 3565 0
-3565 3562 3561 0
-3565 3562 3546 0
-3563 3566 0
-3547 3566 0
-3566 3563 3547 0
-3564 3567 0
-3563 -3547 3567 0
-3567 3564 3563 0
-3567 3564 3547 0
-3565 3568 0
-3564 -3547 3568 0
-3568 3565 3564 0
-3568 3565 3547 0
-3566 3569 0
-3548 3569 0
-3569 3566 3548 0
-3567 3570 0
-3566 -3548 3570 0
-3570 3567 3566 0
-3570 3567 3548 0
-3568 3571 0
-3567 -3548 3571 0
-3571 3568 3567 0
-3571 3568 3548 0
-3569 3572 0
-3549 3572 0
-3572 3569 3549 0
-3570 3573 0
-3569 -3549 3573 0
-3573 3570 3569 0
-3573 3570 3549 0
-3571 3574 0
-3570 -3549 3574 0
-3574 3571 3570 0
-3574 3571 3549 0
-3572 3575 0
-3550 3575 0
-3575 3572 3550 0
-3573 3576 0
-3572 -3550 3576 0
-3576 3573 3572 0
-3576 3573 3550 0
-3574 3577 0
-3573 -3550 3577 0
-3577 3574 3573 0
-3577 3574 3550 0
-3575 3578 0
-3551 3578 0
-3578 3575 3551 0
-3576 3579 0
-3575 -3551 3579 0
-3579 3576 3575 0
-3579 3576 3551 0
-3577 3580 0
-3576 -3551 3580 0
-3580 3577 3576 0
-3580 3577 3551 0
-3578 3581 0
-3552 3581 0
-3581 3578 3552 0
-3579 3582 0
-3578 -3552 3582 0
-3582 3579 3578 0
-3582 3579 3552 0
-3580 3583 0
-3579 -3552 3583 0
-3583 3580 3579 0
-3583 3580 3552 0
-3581 3584 0
-3553 3584 0
-3584 3581 3553 0
-3582 3585 0
-3581 -3553 3585 0
-3585 3582 3581 0
-3585 3582 3553 0
-3583 3586 0
-3582 -3553 3586 0
-3586 3583 3582 0
-3586 3583 3553 0
-3584 3587 0
-3554 3587 0
-3587 3584 3554 0
-3585 3588 0
-3584 -3554 3588 0
-3588 3585 3584 0
-3588 3585 3554 0
-3586 3589 0
-3585 -3554 3589 0
-3589 3586 3585 0
-3589 3586 3554 0
-3587 3590 0
-3555 3590 0
-3590 3587 3555 0
-3588 3591 0
-3587 -3555 3591 0
-3591 3588 3587 0
-3591 3588 3555 0
-3589 3592 0
-3588 -3555 3592 0
-3592 3589 3588 0
-3592 3589 3555 0
-3590 3593 0
-3556 3593 0
-3593 3590 3556 0
-3591 3594 0
-3590 -3556 3594 0
-3594 3591 3590 0
-3594 3591 3556 0
-3592 3595 0
-3591 -3556 3595 0
-3595 3592 3591 0
-3595 3592 3556 0
3595 0
-3596 29 0
-3596 155 0
3596 -29 -155 0
-3597 30 0
-3597 156 0
3597 -30 -156 0
-3598 31 0
-3598 157 0
3598 -31 -157 0
-3599 32 0
-3599 158 0
3599 -32 -158 0
-3600 33 0
-3600 159 0
3600 -33 -159 0
-3601 34 0
-3601 160 0
3601 -34 -160 0
-3602 35 0
-3602 161 0
3602 -35 -161 0
-3603 36 0
-3603 162 0
3603 -36 -162 0
-3604 37 0
-3604 163 0
3604 -37 -163 0
-3605 38 0
-3605 164 0
3605 -38 -164 0
-3606 39 0
-3606 165 0
3606 -39 -165 0
-3607 40 0
-3607 166 0
3607 -40 -166 0
-3608 41 0
-3608 167 0
3608 -41 -167 0
-3609 42 0
-3609 168 0
3609 -42 -168 0
-3596 3610 0
-3610 3596 0
-3610 3611 0
-3597 3611 0
-3611 3610 3597 0
-3610 -3597 3612 0
-3612 3610 0
-3612 3597 0
-3611 3613 0
-3598 3613 0
-3613 3611 3598 0
-3612 3614 0
-3611 -3598 3614 0
-3614 3612 3611 0
-3614 3612 3598 0
-3612 -3598 3615 0
-3615 3612 0
-3615 3598 0
-3613 3616 0
-3599 3616 0
-3616 3613 3599 0
-3614 3617 0
-3613 -3599 3617 0
-3617 3614 3613 0
-3617 3614 3599 0
-3615 3618 0
-3614 -3599 3618 0
-3618 3615 3614 0
-3618 3615 3599 0
-3616 3619 0
-3600 3619 0
-3619 3616 3600 0
-3617 3620 0
-3616 -3600 3620 0
-3620 3617 3616 0
-3620 3617 3600 0
-3618 3621 0
-3617 -3600 3621 0
-3621 3618 3617 0
-3621 3618 3600 0
-3619 3622 0
-3601 3622 0
-3622 3619 3601 0
-3620 3623 0
-3619 -3601 3623 0
-3623 3620 3619 0
-3623 3620 3601 0
-3621 3624 0
-3620 -3601 3624 0
-3624 3621 3620 0
-3624 3621 3601 0
-3622 3625 0
-3602 3625 0
-3625 3622 3602 0
-3623 3626 0
-3622 -3602 3626 0
-3626 3623 3622 0
-3626 3623 3602 0
-3624 3627 0
-3623 -3602 3627 0
-3627 3624 3623 0
-3627 3624 3602 0
-3625 3628 0
-3603 3628 0
-3628 3625 3603 0
-3626 3629 0
-3625 -3603 3629 0
-3629 3626 3625 0
-3629 3626 3603 0
-3627 3630 0
-3626 -3603 3630 0
-3630 3627 3626 0
-3630 3627 3603 0
-3628 3631 0
-3604 3631 0
-3631 3628 3604 0
-3629 3632 0
-3628 -3604 3632 0
-3632 3629 3628 0
-3632 3629 3604 0
-3630 3633 0
-3629 -3604 3633 0
-3633 3630 3629 0
-3633 3630 3604 0
-3631 3634 0
-3605 3634 0
-3634 3631 3605 0
-3632 3635 0
-3631 -3605 3635 0
-3635 3632 3631 0
-3635 3632 3605 0
-3633 3636 0
-3632 -3605 3636 0
-3636 3633 3632 0
-3636 3633 3605 0
-3634 3637 0
-3606 3637 0
-3637 3634 3606 0
-3635 3638 0
-3634 -3606 3638 0
-3638 3635 3634 0
-3638 3635 3606 0
-3636 3639 0
-3635 -3606 3639 0
-3639 3636 3635 0
-3639 3636 3606 0
-3637 3640 0
-3607 3640 0
-3640 3637 3607 0
-3638 3641 0
-3637 -3607 3641 0
-3641 3638 3637 0
-3641 3638 3607 0
-3639 3642 0
-3638 -3607 3642 0
-3642 3639 3638 0
-3642 3639 3607 0
-3640 3643 0
-3608 3643 0
-3643 3640 3608 0
-3641 3644 0
-3640 -3608 3644 0
-3644 3641 3640 0
-3644 3641 3608 0
-3642 3645 0
-3641 -3608 3645 0
-3645 3642 3641 0
-3645 3642 3608 0
-3643 3646 0
-3609 3646 0
-3646 3643 3609 0
-3644 3647 0
-3643 -3609 3647 0
-3647 3644 3643 0
-3647 3644 3609 0
-3645 3648 0
-3644 -3609 3648 0
-3648 3645 3644 0
-3648 3645 3609 0
3648 0
-3649 43 0
-3649 57 0
3649 -43 -57 0
-3650 44 0
-3650 58 0
3650 -44 -58 0
-3651 45 0
-3651 59 0
3651 -45 -59 0
-3652 46 0
-3652 60 0
3652 -46 -60 0
-3653 47 0
-3653 61 0
3653 -47 -61 0
-3654 48 0
-3654 62 0
3654 -48 -62 0
-3655 49 0
-3655 63 0
3655 -49 -63 0
-3656 50 0
-3656 64 0
3656 -50 -64 0
-3657 51 0
-3657 65 0
3657 -51 -65 0
-3658 52 0
-3658 66 0
3658 -52 -66 0
-3659 53 0
-3659 67 0
3659 -53 -67 0
-3660 54 0
-3660 68 0
3660 -54 -68 0
-3661 55 0
-3661 69 0
3661 -55 -69 0
-3662 56 0
-3662 70 0
3662 -56 -70 0
-3649 3663 0
-3663 3649 0
-3663 3664 0
-3650 3664 0
-3664 3663 3650 0
-3663 -3650 3665 0
-3665 3663 0
-3665 3650 0
-3664 3666 0
-3651 3666 0
-3666 3664 3651 0
-3665 3667 0
-3664 -3651 3667 0
-3667 3665 3664 0
-3667 3665 3651 0
-3665 -3651 3668 0
-3668 3665 0
-3668 3651 0
-3666 3669 0
-3652 3669 0
-3669 3666 3652 0
-3667 3670 0
-3666 -3652 3670 0
-3670 3667 3666 0
-3670 3667 3652 0
-3668 3671 0
-3667 -3652 3671 0
-3671 3668 3667 0
-3671 3668 3652 0
-3669 3672 0
-3653 3672 0
-3672 3669 3653 0
-3670 3673 0
-3669 -3653 3673 0
-3673 3670 3669 0
-3673 3670 3653 0
-3671 3674 0
-3670 -3653 3674 0
-3674 3671 3670 0
-3674 3671 3653 0
-3672 3675 0
-3654 3675 0
-3675 3672 3654 0
-3673 3676 0
-3672 -3654 3676 0
-3676 3673 3672 0
-3676 3673 3654 0
-3674 3677 0
-3673 -3654 3677 0
-3677 3674 3673 0
-3677 3674 3654 0
-3675 3678 0
-3655 3678 0
-3678 3675 3655 0
-3676 3679 0
-3675 -3655 3679 0
-3679 3676 3675 0
-3679 3676 3655 0
-3677 3680 0
-3676 -3655 3680 0
-3680 3677 3676 0
-3680 3677 3655 0
-3678 3681 0
-3656 3681 0
-3681 3678 3656 0
-3679 3682 0
-3678 -3656 3682 0
-3682 3679 3678 0
-3682 3679 3656 0
-3680 3683 0
-3679 -3656 3683 0
-3683 3680 3679 0
-3683 3680 3656 0
-3681 3684 0
-3657 3684 0
-3684 3681 3657 0
-3682 3685 0
-3681 -3657 3685 0
-3685 3682 3681 0
-3685 3682 3657 0
-3683 3686 0
-3682 -3657 3686 0
-3686 3683 3682 0
-3686 3683 3657 0
-3684 3687 0
-3658 3687 0
-3687 3684 3658 0
-3685 3688 0
-3684 -3658 3688 0
-3688 3685 3684 0
-3688 3685 3658 0
-3686 3689 0
-3685 -3658 3689 0
-3689 3686 3685 0
-3689 3686 3658 0
-3687 3690 0
-3659 3690 0
-3690 3687 3659 0
-3688 3691 0
-3687 -3659 3691 0
-3691 3688 3687 0
-3691 3688 3659 0
-3689 3692 0
-3688 -3659 3692 0
-3692 3689 3688 0
-3692 3689 3659 0
-3690 3693 0
-3660 3693 0
-3693 3690 3660 0
-3691 3694 0
-3690 -3660 3694 0
-3694 3691 3690 0
-3694 3691 3660 0
-3692 3695 0
-3691 -3660 3695 0
-3695 3692 3691 0
-3695 3692 3660 0
-3693 3696 0
-3661 3696 0
-3696 3693 3661 0
-3694 3697 0
-3693 -3661 3697 0
-3697 3694 3693 0
-3697 3694 3661 0
-3695 3698 0
-3694 -3661 3698 0
-3698 3695 3694 0
-3698 3695 3661 0
-3696 3699 0
-3662 3699 0
-3699 3696 3662 0
-3697 3700 0
-3696 -3662 3700 0
-3700 3697 3696 0
-3700 3697 3662 0
-3698 3701 0
-3697 -3662 3701 0
-3701 3698 3697 0
-3701 3698 3662 0
3701 0
-3702 43 0
-3702 71 0
3702 -43 -71 0
-3703 44 0
-3703 72 0
3703 -44 -72 0
-3704 45 0
-3704 73 0
3704 -45 -73 0
-3705 46 0
-3705 74 0
3705 -46 -74 0
-3706 47 0
-3706 75 0
3706 -47 -75 0
-3707 48 0
-3707 76 0
3707 -48 -76 0
-3708 49 0
-3708 77 0
3708 -49 -77 0
-3709 50 0
-3709 78 0
3709 -50 -78 0
-3710 51 0
-3710 79 0
3710 -51 -79 0
-3711 52 0
-3711 80 0
3711 -52 -80 0
-3712 53 0
-3712 81 0
3712 -53 -81 0
-3713 54 0
-3713 82 0
3713 -54 -82 0
-3714 55 0
-3714 83 0
3714 -55 -83 0
-3715 56 0
-3715 84 0
3715 -56 -84 0
-3702 3716 0
-3716 3702 0
-3716 3717 0
-3703 3717 0
-3717 3716 3703 0
-3716 -3703 3718 0
-3718 3716 0
-3718 3703 0
-3717 3719 0
-3704 3719 0
-3719 3717 3704 0
-3718 3720 0
-3717 -3704 3720 0
-3720 3718 3717 0
-3720 3718 3704 0
-3718 -3704 3721 0
-3721 3718 0
-3721 3704 0
-3719 3722 0
-3705 3722 0
-3722 3719 3705 0
-3720 3723 0
-3719 -3705 3723 0
-3723 3720 3719 0
-3723 3720 3705 0
-3721 3724 0
-3720 -3705 3724 0
-3724 3721 3720 0
-3724 3721 3705 0
-3722 3725 0
-3706 3725 0
-3725 3722 3706 0
-3723 3726 0
-3722 -3706 3726 0
-3726 3723 3722 0
-3726 3723 3706 0
-3724 3727 0
-3723 -3706 3727 0
-3727 3724 3723 0
-3727 3724 3706 0
-3725 3728 0
-3707 3728 0
-3728 3725 3707 0
-3726 3729 0
-3725 -3707 3729 0
-3729 3726 3725 0
-3729 3726 3707 0
-3727 3730 0
-3726 -3707 3730 0
-3730 3727 3726 0
-3730 3727 3707 0
-3728 3731 0
-3708 3731 0
-3731 3728 3708 0
-3729 3732 0
-3728 -3708 3732 0
-3732 3729 3728 0
-3732 3729 3708 0
-3730 3733 0
-3729 -3708 3733 0
-3733 3730 3729 0
-3733 3730 3708 0
-3731 3734 0
-3709 3734 0
-3734 3731 3709 0
-3732 3735 0
-3731 -3709 3735 0
-3735 3732 3731 0
-3735 3732 3709 0
-3733 3736 0
-3732 -3709 3736 0
-3736 3733 3732 0
-3736 3733 3709 0
-3734 3737 0
-3710 3737 0
-3737 3734 3710 0
-3735 3738 0
-3734 -3710 3738 0
-3738 3735 3734 0
-3738 3735 3710 0
-3736 3739 0
-3735 -3710 3739 0
-3739 3736 3735 0
-3739 3736 3710 0
-3737 3740 0
-3711 3740 0
-3740 3737 3711 0
-3738 3741 0
-3737 -3711 3741 0
-3741 3738 3737 0
-3741 3738 3711 0
-3739 3742 0
-3738 -3711 3742 0
-3742 3739 3738 0
-3742 3739 3711 0
-3740 3743 0
-3712 3743 0
-3743 3740 3712 0
-3741 3744 0
-3740 -3712 3744 0
-3744 3741 3740 0
-3744 3741 3712 0
-3742 3745 0
-3741 -3712 3745 0
-3745 3742 3741 0
-3745 3742 3712 0
-3743 3746 0
-3713 3746 0
-3746 3743 3713 0
-3744 3747 0
-3743 -3713 3747 0
-3747 3744 3743 0
-3747 3744 3713 0
-3745 3748 0
-3744 -3713 3748 0
-3748 3745 3744 0
-3748 3745 3713 0
-3746 3749 0
-3714 3749 0
-3749 3746 3714 0
-3747 3750 0
-3746 -3714 3750 0
-3750 3747 3746 0
-3750 3747 3714 0
-3748 3751 0
-3747 -3714 3751 0
-3751 3748 3747 0
-3751 3748 3714 0
-3749 3752 0
-3715 3752 0
-3752 3749 3715 0
-3750 3753 0
-3749 -3715 3753 0
-3753 3750 3749 0
-3753 3750 3715 0
-3751 3754 0
-3750 -3715 3754 0
-3754 3751 3750 0
-3754 3751 3715 0
3754 0
-3755 43 0
-3755 85 0
3755 -43 -85 0
-3756 44 0
-3756 86 0
3756 -44 -86 0
-3757 45 0
-3757 87 0
3757 -45 -87 0
-3758 46 0
-3758 88 0
3758 -46 -88 0
-3759 47 0
-3759 89 0
3759 -47 -89 0
-3760 48 0
-3760 90 0
3760 -48 -90 0
-3761 49 0
-3761 91 0
3761 -49 -91 0
-3762 50 0
-3762 92 0
3762 -50 -92 0
-3763 51 0
-3763 93 0
3763 -51 -93 0
-3764 52 0
-3764 94 0
3764 -52 -94 0
-3765 53 0
-3765 95 0
3765 -53 -95 0
-3766 54 0
-3766 96 0
3766 -54 -96 0
-3767 55 0
-3767 97 0
3767 -55 -97 0
-3768 56 0
-3768 98 0
3768 -56 -98 0
-3755 3769 0
-3769 3755 0
-3769 3770 0
-3756 3770 0
-3770 3769 3756 0
-3769 -3756 3771 0
-3771 3769 0
-3771 3756 0
-3770 3772 0
-3757 3772 0
-3772 3770 3757 0
-3771 3773 0
-3770 -3757 3773 0
-3773 3771 3770 0
-3773 3771 3757 0
-3771 -3757 3774 0
-3774 3771 0
-3774 3757 0
-3772 3775 0
-3758 3775 0
-3775 3772 3758 0
-3773 3776 0
-3772 -3758 3776 0
-3776 3773 3772 0
-3776 3773 3758 0
-3774 3777 0
-3773 -3758 3777 0
-3777 3774 3773 0
-3777 3774 3758 0
-3775 3778 0
-3759 3778 0
-3778 3775 3759 0
-3776 3779 0
-3775 -3759 3779 0
-3779 3776 3775 0
-3779 3776 3759 0
-3777 3780 0
-3776 -3759 3780 0
-3780 3777 3776 0
-3780 3777 3759 0
-3778 3781 0
-3760 3781 0
-3781 3778 3760 0
-3779 3782 0
-3778 -3760 3782 0
-3782 3779 3778 0
-3782 3779 3760 0
-3780 3783 0
-3779 -3760 3783 0
-3783 3780 3779 0
-3783 3780 3760 0
-3781 3784 0
-3761 3784 0
-3784 3781 3761 0
-3782 3785 0
-3781 -3761 3785 0
-3785 3782 3781 0
-3785 3782 3761 0
-3783 3786 0
-3782 -3761 3786 0
-3786 3783 3782 0
-3786 3783 3761 0
-3784 3787 0
-3762 3787 0
-3787 3784 3762 0
-3785 3788 0
-3784 -3762 3788 0
-3788 3785 3784 0
-3788 3785 3762 0
-3786 3789 0
-3785 -3762 3789 0
-3789 3786 3785 0
-3789 3786 3762 0
-3787 3790 0
-3763 3790 0
-3790 3787 3763 0
-3788 3791 0
-3787 -3763 3791 0
-3791 3788 3787 0
-3791 3788 3763 0
-3789 3792 0
-3788 -3763 3792 0
-3792 3789 3788 0
-3792 3789 3763 0
-3790 3793 0
-3764 3793 0
-3793 3790 3764 0
-3791 3794 0
-3790 -3764 3794 0
-3794 3791 3790 0
-3794 3791 3764 0
-3792 3795 0
-3791 -3764 3795 0
-3795 3792 3791 0
-3795 3792 3764 0
-3793 3796 0
-3765 3796 0
-3796 3793 3765 0
-3794 3797 0
-3793 -3765 3797 0
-3797 3794 3793 0
-3797 3794 3765 0
-3795 3798 0
-3794 -3765 3798 0
-3798 3795 3794 0
-3798 3795 3765 0
-3796 3799 0
-3766 3799 0
-3799 3796 3766 0
-3797 3800 0
-3796 -3766 3800 0
-3800 3797 3796 0
-3800 3797 3766 0
-3798 3801 0
-3797 -3766 3801 0
-3801 3798 3797 0
-3801 3798 3766 0
-3799 3802 0
-3767 3802 0
-3802 3799 3767 0
-3800 3803 0
-3799 -3767 3803 0
-3803 3800 3799 0
-3803 3800 3767 0
-3801 3804 0
-3800 -3767 3804 0
-3804 3801 3800 0
-3804 3801 3767 0
-3802 3805 0
-3768 3805 0
-3805 3802 3768 0
-3803 3806 0
-3802 -3768 3806 0
-3806 3803 3802 0
-3806 3803 3768 0
-3804 3807 0
-3803 -3768 3807 0
-3807 3804 3803 0
-3807 3804 3768 0
3807 0
-3808 43 0
-3808 99 0
3808 -43 -99 0
-3809 44 0
-3809 100 0
3809 -44 -100 0
-3810 45 0
-3810 101 0
3810 -45 -101 0
-3811 46 0
-3811 102 0
3811 -46 -102 0
-3812 47 0
-3812 103 0
3812 -47 -103 0
-3813 48 0
-3813 104 0
3813 -48 -104 0
-3814 49 0
-3814 105 0
3814 -49 -105 0
-3815 50 0
-3815 106 0
3815 -50 -106 0
-3816 51 0
-3816 107 0
3816 -51 -107 0
-3817 52 0
-3817 108 0
3817 -52 -108 0
-3818 53 0
-3818 109 0
3818 -53 -109 0
-3819 54 0
-3819 110 0
3819 -54 -110 0
-3820 55 0
-3820 111 0
3820 -55 -111 0
-3821 56 0
-3821 112 0
3821 -56 -112 0
-3808 3822 0
-3822 3808 0
-3822 3823 0
-3809 3823 0
-3823 3822 3809 0
-3822 -3809 3824 0
-3824 3822 0
-3824 3809 0
-3823 3825 0
-3810 3825 0
-3825 3823 3810 0
-3824 3826 0
-3823 -3810 3826 0
-3826 3824 3823 0
-3826 3824 3810 0
-3824 -3810 3827 0
-3827 3824 0
-3827 3810 0
-3825 3828 0
-3811 3828 0
-3828 3825 3811 0
-3826 3829 0
-3825 -3811 3829 0
-3829 3826 3825 0
-3829 3826 3811 0
-3827 3830 0
-3826 -3811 3830 0
-3830 3827 3826 0
-3830 3827 3811 0
-3828 3831 0
-3812 3831 0
-3831 3828 3812 0
-3829 3832 0
-3828 -3812 3832 0
-3832 3829 3828 0
-3832 3829 3812 0
-3830 3833 0
-3829 -3812 3833 0
-3833 3830 3829 0
-3833 3830 3812 0
-3831 3834 0
-3813 3834 0
-3834 3831 3813 0
-3832 3835 0
-3831 -3813 3835 0
-3835 3832 3831 0
-3835 3832 3813 0
-3833 3836 0
-3832 -3813 3836 0
-3836 3833 3832 0
-3836 3833 3813 0
-3834 3837 0
-3814 3837 0
-3837 3834 3814 0
-3835 3838 0
-3834 -3814 3838 0
-3838 3835 3834 0
-3838 3835 3814 0
-3836 3839 0
-3835 -3814 3839 0
-3839 3836 3835 0
-3839 3836 3814 0
-3837 3840 0
-3815 3840 0
-3840 3837 3815 0
-3838 3841 0
-3837 -3815 3841 0
-3841 3838 3837 0
-3841 3838 3815 0
-3839 3842 0
-3838 -3815 3842 0
-3842 3839 3838 0
-3842 3839 3815 0
-3840 3843 0
-3816 3843 0
-3843 3840 3816 0
-3841 3844 0
-3840 -3816 3844 0
-3844 3841 3840 0
-3844 3841 3816 0
-3842 3845 0
-3841 -3816 3845 0
-3845 3842 3841 0
-3845 3842 3816 0
-3843 3846 0
-3817 3846 0
-3846 3843 3817 0
-3844 3847 0
-3843 -3817 3847 0
-3847 3844 3843 0
-3847 3844 3817 0
-3845 3848 0
-3844 -3817 3848 0
-3848 3845 3844 0
-3848 3845 3817 0
-3846 3849 0
-3818 3849 0
-3849 3846 3818 0
-3847 3850 0
-3846 -3818 3850 0
-3850 3847 3846 0
-3850 3847 3818 0
-3848 3851 0
-3847 -3818 3851 0
-3851 3848 3847 0
-3851 3848 3818 0
-3849 3852 0
-3819 3852 0
-3852 3849 3819 0
-3850 3853 0
-3849 -3819 3853 0
-3853 3850 3849 0
-3853 3850 3819 0
-3851 3854 0
-3850 -3819 3854 0
-3854 3851 3850 0
-3854 3851 3819 0
-3852 3855 0
-3820 3855 0
-3855 3852 3820 0
-3853 3856 0
-3852 -3820 3856 0
-3856 3853 3852 0
-3856 3853 3820 0
-3854 3857 0
-3853 -3820 3857 0
-3857 3854 3853 0
-3857 3854 3820 0
-3855 3858 0
-3821 3858 0
-3858 3855 3821 0
-3856 3859 0
-3855 -3821 3859 0
-3859 3856 3855 0
-3859 3856 3821 0
-3857 3860 0
-3856 -3821 3860 0
-3860 3857 3856 0
-3860 3857 3821 0
3860 0
-3861 43 0
-3861 113 0
3861 -43 -113 0
-3862 44 0
-3862 114 0
3862 -44 -114 0
-3863 45 0
-3863 115 0
3863 -45 -115 0
-3864 46 0
-3864 116 0
3864 -46 -116 0
-3865 47 0
-3865 117 0
3865 -47 -117 0
-3866 48 0
-3866 118 0
3866 -48 -118 0
-3867 49 0
-3867 119 0
3867 -49 -119 0
-3868 50 0
-3868 120 0
3868 -50 -120 0
-3869 51 0
-3869 121 0
3869 -51 -121 0
-3870 52 0
-3870 122 0
3870 -52 -122 0
-3871 53 0
-3871 123 0
3871 -53 -123 0
-3872 54 0
-3872 124 0
3872 -54 -124 0
-3873 55 0
-3873 125 0
3873 -55 -125 0
-3874 56 0
-3874 126 0
3874 -56 -126 0
-3861 3875 0
-3875 3861 0
-3875 3876 0
-3862 3876 0
-3876 3875 3862 0
-3875 -3862 3877 0
-3877 3875 0
-3877 3862 0
-3876 3878 0
-3863 3878 0
-3878 3876 3863 0
-3877 3879 0
-3876 -3863 3879 0
-3879 3877 3876 0
-3879 3877 3863 0
-3877 -3863 3880 0
-3880 3877 0
-3880 3863 0
-3878 3881 0
-3864 3881 0
-3881 3878 3864 0
-3879 3882 0
-3878 -3864 3882 0
-3882 3879 3878 0
-3882 3879 3864 0
-3880 3883 0
-3879 -3864 3883 0
-3883 3880 3879 0
-3883 3880 3864 0
-3881 3884 0
-3865 3884 0
-3884 3881 3865 0
-3882 3885 0
-3881 -3865 3885 0
-3885 3882 3881 0
-3885 3882 3865 0
-3883 3886 0
-3882 -3865 3886 0
-3886 3883 3882 0
-3886 3883 3865 0
-3884 3887 0
-3866 3887 0
-3887 3884 3866 0
-3885 3888 0
-3884 -3866 3888 0
-3888 3885 3884 0
-3888 3885 3866 0
-3886 3889 0
-3885 -3866 3889 0
-3889 3886 3885 0
-3889 3886 3866 0
-3887 3890 0
-3867 3890 0
-3890 3887 3867 0
-3888 3891 0
-3887 -3867 3891 0
-3891 3888 3887 0
-3891 3888 3867 0
-3889 3892 0
-3888 -3867 3892 0
-3892 3889 3888 0
-3892 3889 3867 0
-3890 3893 0
-3868 3893 0
-3893 3890 3868 0
-3891 3894 0
-3890 -3868 3894 0
-3894 3891 3890 0
-3894 3891 3868 0
-3892 3895 0
-3891 -3868 3895 0
-3895 3892 3891 0
-3895 3892 3868 0
-3893 3896 0
-3869 3896 0
-3896 3893 3869 0
-3894 3897 0
-3893 -3869 3897 0
-3897 3894 3893 0
-3897 3894 3869 0
-3895 3898 0
-3894 -3869 3898 0
-3898 3895 3894 0
-3898 3895 3869 0
-3896 3899 0
-3870 3899 0
-3899 3896 3870 0
-3897 3900 0
-3896 -3870 3900 0
-3900 3897 3896 0
-3900 3897 3870 0
-3898 3901 0
-3897 -3870 3901 0
-3901 3898 3897 0
-3901 3898 3870 0
-3899 3902 0
-3871 3902 0
-3902 3899 3871 0
-3900 3903 0
-3899 -3871 3903 0
-3903 3900 3899 0
-3903 3900 3871 0
-3901 3904 0
-3900 -3871 3904 0
-3904 3901 3900 0
-3904 3901 3871 0
-3902 3905 0
-3872 3905 0
-3905 3902 3872 0
-3903 3906 0
-3902 -3872 3906 0
-3906 3903 3902 0
-3906 3903 3872 0
-3904 3907 0
-3903 -3872 3907 0
-3907 3904 3903 0
-3907 3904 3872 0
-3905 3908 0
-3873 3908 0
-3908 3905 3873 0
-3906 3909 0
-3905 -3873 3909 0
-3909 3906 3905 0
-3909 3906 3873 0
-3907 3910 0
-3906 -3873 3910 0
-3910 3907 3906 0
-3910 3907 3873 0
-3908 3911 0
-3874 3911 0
-3911 3908 3874 0
-3909 3912 0
-3908 -3874 3912 0
-3912 3909 3908 0
-3912 3909 3874 0
-3910 3913 0
-3909 -3874 3913 0
-3913 3910 3909 0
-3913 3910 3874 0
3913 0
-3914 43 0
-3914 127 0
3914 -43 -127 0
-3915 44 0
-3915 128 0
3915 -44 -128 0
-3916 45 0
-3916 129 0
3916 -45 -129 0
-3917 46 0
-3917 130 0
3917 -46 -130 0
-3918 47 0
-3918 131 0
3918 -47 -131 0
-3919 48 0
-3919 132 0
3919 -48 -132 0
-3920 49 0
-3920 133 0
3920 -49 -133 0
-3921 50 0
-3921 134 0
3921 -50 -134 0
-3922 51 0
-3922 135 0
3922 -51 -135 0
-3923 52 0
-3923 136 0
3923 -52 -136 0
-3924 53 0
-3924 137 0
3924 -53 -137 0
-3925 54 0
-3925 138 0
3925 -54 -138 0
-3926 55 0
-3926 139 0
3926 -55 -139 0
-3927 56 0
-3927 140 0
3927 -56 -140 0
-3914 3928 0
-3928 3914 0
-3928 3929 0
-3915 3929 0
-3929 3928 3915 0
-3928 -3915 3930 0
-3930 3928 0
-3930 3915 0
-3929 3931 0
-3916 3931 0
-3931 3929 3916 0
-3930 3932 0
-3929 -3916 3932 0
-3932 3930 3929 0
-3932 3930 3916 0
-3930 -3916 3933 0
-3933 3930 0
-3933 3916 0
-3931 3934 0
-3917 3934 0
-3934 3931 3917 0
-3932 3935 0
-3931 -3917 3935 0
-3935 3932 3931 0
-3935 3932 3917 0
-3933 3936 0
-3932 -3917 3936 0
-3936 3933 3932 0
-3936 3933 3917 0
-3934 3937 0
-3918 3937 0
-3937 3934 3918 0
-3935 3938 0
-3934 -3918 3938 0
-3938 3935 3934 0
-3938 3935 3918 0
-3936 3939 0
-3935 -3918 3939 0
-3939 3936 3935 0
-3939 3936 3918 0
-3937 3940 0
-3919 3940 0
-3940 3937 3919 0
-3938 3941 0
-3937 -3919 3941 0
-3941 3938 3937 0
-3941 3938 3919 0
-3939 3942 0
-3938 -3919 3942 0
-3942 3939 3938 0
-3942 3939 3919 0
-3940 3943 0
-3920 3943 0
-3943 3940 3920 0
-3941 3944 0
-3940 -3920 3944 0
-3944 3941 3940 0
-3944 3941 3920 0
-3942 3945 0
-3941 -3920 3945 0
-3945 3942 3941 0
-3945 3942 3920 0
-3943 3946 0
-3921 3946 0
-3946 3943 3921 0
-3944 3947 0
-3943 -3921 3947 0
-3947 3944 3943 0
-3947 3944 3921 0
-3945 3948 0
-3944 -3921 3948 0
-3948 3945 3944 0
-3948 3945 3921 0
-3946 3949 0
-3922 3949 0
-3949 3946 3922 0
-3947 3950 0
-3946 -3922 3950 0
-3950 3947 3946 0
-3950 3947 3922 0
-3948 3951 0
-3947 -3922 3951 0
-3951 3948 3947 0
-3951 3948 3922 0
-3949 3952 0
-3923 3952 0
-3952 3949 3923 0
-3950 3953 0
-3949 -3923 3953 0
-3953 3950 3949 0
-3953 3950 3923 0
-3951 3954 0
-3950 -3923 3954 0
-3954 3951 3950 0
-3954 3951 3923 0
-3952 3955 0
-3924 3955 0
-3955 3952 3924 0
-3953 3956 0
-3952 -3924 3956 0
-3956 3953 3952 0
-3956 3953 3924 0
-3954 3957 0
-3953 -3924 3957 0
-3957 3954 3953 0
-3957 3954 3924 0
-3955 3958 0
-3925 3958 0
-3958 3955 3925 0
-3956 3959 0
-3955 -3925 3959 0
-3959 3956 3955 0
-3959 3956 3925 0
-3957 3960 0
-3956 -3925 3960 0
-3960 3957 3956 0
-3960 3957 3925 0
-3958 3961 0
-3926 3961 0
-3961 3958 3926 0
-3959 3962 0
-3958 -3926 3962 0
-3962 3959 3958 0
-3962 3959 3926 0
-3960 3963 0
-3959 -3926 3963 0
-3963 3960 3959 0
-3963 3960 3926 0
-3961 3964 0
-3927 3964 0
-3964 3961 3927 0
-3962 3965 0
-3961 -3927 3965 0
-3965 3962 3961 0
-3965 3962 3927 0
-3963 3966 0
-3962 -3927 3966 0
-3966 3963 3962 0
-3966 3963 3927 0
3966 0
-3967 43 0
-3967 141 0
3967 -43 -141 0
-3968 44 0
-3968 142 0
3968 -44 -142 0
-3969 45 0
-3969 143 0
3969 -45 -143 0
-3970 46 0
-3970 144 0
3970 -46 -144 0
-3971 47 0
-3971 145 0
3971 -47 -145 0
-3972 48 0
-3972 146 0
3972 -48 -146 0
-3973 49 0
-3973 147 0
3973 -49 -147 0
-3974 50 0
-3974 148 0
3974 -50 -148 0
-3975 51 0
-3975 149 0
3975 -51 -149 0
-3976 52 0
-3976 150 0
3976 -52 -150 0
-3977 53 0
-3977 151 0
3977 -53 -151 0
-3978 54 0
-3978 152 0
3978 -54 -152 0
-3979 55 0
-3979 153 0
3979 -55 -153 0
-3980 56 0
-3980 154 0
3980 -56 -154 0
-3967 3981 0
-3981 3967 0
-3981 3982 0
-3968 3982 0
-3982 3981 3968 0
-3981 -3968 3983 0
-3983 3981 0
-3983 3968 0
-3982 3984 0
-3969 3984 0
-3984 3982 3969 0
-3983 3985 0
-3982 -3969 3985 0
-3985 3983 3982 0
-3985 3983 3969 0
-3983 -3969 3986 0
-3986 3983 0
-3986 3969 0
-3984 3987 0
-3970 3987 0
-3987 3984 3970 0
-3985 3988 0
-3984 -3970 3988 0
-3988 3985 3984 0
-3988 3985 3970 0
-3986 3989 0
-3985 -3970 3989 0
-3989 3986 3985 0
-3989 3986 3970 0
-3987 3990 0
-3971 3990 0
-3990 3987 3971 0
-3988 3991 0
-3987 -3971 3991 0
-3991 3988 3987 0
-3991 3988 3971 0
-3989 3992 0
-3988 -3971 3992 0
-3992 3989 3988 0
-3992 3989 3971 0
-3990 3993 0
-3972 3993 0
-3993 3990 3972 0
-3991 3994 0
-3990 -3972 3994 0
-3994 3991 3990 0
-3994 3991 3972 0
-3992 3995 0
-3991 -3972 3995 0
-3995 3992 3991 0
-3995 3992 3972 0
-3993 3996 0
-3973 3996 0
-3996 3993 3973 0
-3994 3997 0
-3993 -3973 3997 0
-3997 3994 3993 0
-3997 3994 3973 0
-3995 3998 0
-3994 -3973 3998 0
-3998 3995 3994 0
-3998 3995 3973 0
-3996 3999 0
-3974 3999 0
-3999 3996 3974 0
-3997 4000 0
-3996 -3974 4000 0
-4000 3997 3996 0
-4000 3997 3974 0
-3998 4001 0
-3997 -3974 4001 0
-4001 3998 3997 0
-4001 3998 3974 0
-3999 4002 0
-3975 4002 0
-4002 3999 3975 0
-4000 4003 0
-3999 -3975 4003 0
-4003 4000 3999 0
-4003 4000 3975 0
-4001 4004 0
-4000 -3975 4004 0
-4004 4001 4000 0
-4004 4001 3975 0
-4002 4005 0
-3976 4005 0
-4005 4002 3976 0
-4003 4006 0
-4002 -3976 4006 0
-4006 4003 4002 0
-4006 4003 3976 0
-4004 4007 0
-4003 -3976 4007 0
-4007 4004 4003 0
-4007 4004 3976 0
-4005 4008 0
-3977 4008 0
-4008 4005 3977 0
-4006 4009 0
-4005 -3977 4009 0
-4009 4006 4005 0
-4009 4006 3977 0
-4007 4010 0
-4006 -3977 4010 0
-4010 4007 4006 0
-4010 4007 3977 0
-4008 4011 0
-3978 4011 0
-4011 4008 3978 0
-4009 4012 0
-4008 -3978 4012 0
-4012 4009 4008 0
-4012 4009 3978 0
-4010 4013 0
-4009 -3978 4013 0
-4013 4010 4009 0
-4013 4010 3978 0
-4011 4014 0
-3979 4014 0
-4014 4011 3979 0
-4012 4015 0
-4011 -3979 4015 0
-4015 4012 4011 0
-4015 4012 3979 0
-4013 4016 0
-4012 -3979 4016 0
-4016 4013 4012 0
-4016 4013 3979 0
-4014 4017 0
-3980 4017 0
-4017 4014 3980 0
-4015 4018 0
-4014 -3980 4018 0
-4018 4015 4014 0
-4018 4015 3980 0
-4016 4019 0
-4015 -3980 4019 0
-4019 4016 4015 0
-4019 4016 3980 0
4019 0
-4020 43 0
-4020 155 0
4020 -43 -155 0
-4021 44 0
-4021 156 0
4021 -44 -156 0
-4022 45 0
-4022 157 0
4022 -45 -157 0
-4023 46 0
-4023 158 0
4023 -46 -158 0
-4024 47 0
-4024 159 0
4024 -47 -159 0
-4025 48 0
-4025 160 0
4025 -48 -160 0
-4026 49 0
-4026 161 0
4026 -49 -161 0
-4027 50 0
-4027 162 0
4027 -50 -162 0
-4028 51 0
-4028 163 0
4028 -51 -163 0
-4029 52 0
-4029 164 0
4029 -52 -164 0
-4030 53 0
-4030 165 0
4030 -53 -165 0
-4031 54 0
-4031 166 0
4031 -54 -166 0
-4032 55 0
-4032 167 0
4032 -55 -167 0
-4033 56 0
-4033 168 0
4033 -56 -168 0
-4020 4034 0
-4034 4020 0
-4034 4035 0
-4021 4035 0
-4035 4034 4021 0
-4034 -4021 4036 0
-4036 4034 0
-4036 4021 0
-4035 4037 0
-4022 4037 0
-4037 4035 4022 0
-4036 4038 0
-4035 -4022 4038 0
-4038 4036 4035 0
-4038 4036 4022 0
-4036 -4022 4039 0
-4039 4036 0
-4039 4022 0
-4037 4040 0
-4023 4040 0
-4040 4037 4023 0
-4038 4041 0
-4037 -4023 4041 0
-4041 4038 4037 0
-4041 4038 4023 0
-4039 4042 0
-4038 -4023 4042 0
-4042 4039 4038 0
-4042 4039 4023 0
-4040 4043 0
-4024 4043 0
-4043 4040 4024 0
-4041 4044 0
-4040 -4024 4044 0
-4044 4041 4040 0
-4044 4041 4024 0
-4042 4045 0
-4041 -4024 4045 0
-4045 4042 4041 0
-4045 4042 4024 0
-4043 4046 0
-4025 4046 0
-4046 4043 4025 0
-4044 4047 0
-4043 -4025 4047 0
-4047 4044 4043 0
-4047 4044 4025 0
-4045 4048 0
-4044 -4025 4048 0
-4048 4045 4044 0
-4048 4045 4025 0
-4046 4049 0
-4026 4049 0
-4049 4046 4026 0
-4047 4050 0
-4046 -4026 4050 0
-4050 4047 4046 0
-4050 4047 4026 0
-4048 4051 0
-4047 -4026 4051 0
-4051 4048 4047 0
-4051 4048 4026 0
-4049 4052 0
-4027 4052 0
-4052 4049 4027 0
-4050 4053 0
-4049 -4027 4053 0
-4053 4050 4049 0
-4053 4050 4027 0
-4051 4054 0
-4050 -4027 4054 0
-4054 4051 4050 0
-4054 4051 4027 0
-4052 4055 0
-4028 4055 0
-4055 4052 4028 0
-4053 4056 0
-4052 -4028 4056 0
-4056 4053 4052 0
-4056 4053 4028 0
-4054 4057 0
-4053 -4028 4057 0
-4057 4054 4053 0
-4057 4054 4028 0
-4055 4058 0
-4029 4058 0
-4058 4055 4029 0
-4056 4059 0
-4055 -4029 4059 0
-4059 4056 4055 0
-4059 4056 4029 0
-4057 4060 0
-4056 -4029 4060 0
-4060 4057 4056 0
-4060 4057 4029 0
-4058 4061 0
-4030 4061 0
-4061 4058 4030 0
-4059 4062 0
-4058 -4030 4062 0
-4062 4059 4058 0
-4062 4059 4030 0
-4060 4063 0
-4059 -4030 4063 0
-4063 4060 4059 0
-4063 4060 4030 0
-4061 4064 0
-4031 4064 0
-4064 4061 4031 0
-4062 4065 0
-4061 -4031 4065 0
-4065 4062 4061 0
-4065 4062 4031 0
-4063 4066 0
-4062 -4031 4066 0
-4066 4063 4062 0
-4066 4063 4031 0
-4064 4067 0
-4032 4067 0
-4067 4064 4032 0
-4065 4068 0
-4064 -4032 4068 0
-4068 4065 4064 0
-4068 4065 4032 0
-4066 4069 0
-4065 -4032 4069 0
-4069 4066 4065 0
-4069 4066 4032 0
-4067 4070 0
-4033 4070 0
-4070 4067 4033 0
-4068 4071 0
-4067 -4033 4071 0
-4071 4068 4067 0
-4071 4068 4033 0
-4069 4072 0
-4068 -4033 4072 0
-4072 4069 4068 0
-4072 4069 4033 0
4072 0
-4073 57 0
-4073 71 0
4073 -57 -71 0
-4074 58 0
-4074 72 0
4074 -58 -72 0
-4075 59 0
-4075 73 0
4075 -59 -73 0
-4076 60 0
-4076 74 0
4076 -60 -74 0
-4077 61 0
-4077 75 0
4077 -61 -75 0
-4078 62 0
-4078 76 0
4078 -62 -76 0
-4079 63 0
-4079 77 0
4079 -63 -77 0
-4080 64 0
-4080 78 0
4080 -64 -78 0
-4081 65 0
-4081 79 0
4081 -65 -79 0
-4082 66 0
-4082 80 0
4082 -66 -80 0
-4083 67 0
-4083 81 0
4083 -67 -81 0
-4084 68 0
-4084 82 0
4084 -68 -82 0
-4085 69 0
-4085 83 0
4085 -69 -83 0
-4086 70 0
-4086 84 0
4086 -70 -84 0
-4073 4087 0
-4087 4073 0
-4087 4088 0
-4074 4088 0
-4088 4087 4074 0
-4087 -4074 4089 0
-4089 4087 0
-4089 4074 0
-4088 4090 0
-4075 4090 0
-4090 4088 4075 0
-4089 4091 0
-4088 -4075 4091 0
-4091 4089 4088 0
-4091 4089 4075 0
-4089 -4075 4092 0
-4092 4089 0
-4092 4075 0
-4090 4093 0
-4076 4093 0
-4093 4090 4076 0
-4091 4094 0
-4090 -4076 4094 0
-4094 4091 4090 0
-4094 4091 4076 0
-4092 4095 0
-4091 -4076 4095 0
-4095 4092 4091 0
-4095 4092 4076 0
-4093 4096 0
-4077 4096 0
-4096 4093 4077 0
-4094 4097 0
-4093 -4077 4097 0
-4097 4094 4093 0
-4097 4094 4077 0
-4095 4098 0
-4094 -4077 4098 0
-4098 4095 4094 0
-4098 4095 4077 0
-4096 4099 0
-4078 4099 0
-4099 4096 4078 0
-4097 4100 0
-4096 -4078 4100 0
-4100 4097 4096 0
-4100 4097 4078 0
-4098 4101 0
-4097 -4078 4101 0
-4101 4098 4097 0
-4101 4098 4078 0
-4099 4102 0
-4079 4102 0
-4102 4099 4079 0
-4100 4103 0
-4099 -4079 4103 0
-4103 4100 4099 0
-4103 4100 4079 0
-4101 4104 0
-4100 -4079 4104 0
-4104 4101 4100 0
-4104 4101 4079 0
-4102 4105 0
-4080 4105 0
-4105 4102 4080 0
-4103 4106 0
-4102 -4080 4106 0
-4106 4103 4102 0
-4106 4103 4080 0
-4104 4107 0
-4103 -4080 4107 0
-4107 4104 4103 0
-4107 4104 4080 0
-4105 4108 0
-4081 4108 0
-4108 4105 4081 0
-4106 4109 0
-4105 -4081 4109 0
-4109 4106 4105 0
-4109 4106 4081 0
-4107 4110 0
-4106 -4081 4110 0
-4110 4107 4106 0
-4110 4107 4081 0
-4108 4111 0
-4082 4111 0
-4111 4108 4082 0
-4109 4112 0
-4108 -4082 4112 0
-4112 4109 4108 0
-4112 4109 4082 0
-4110 4113 0
-4109 -4082 4113 0
-4113 4110 4109 0
-4113 4110 4082 0
-4111 4114 0
-4083 4114 0
-4114 4111 4083 0
-4112 4115 0
-4111 -4083 4115 0
-4115 4112 4111 0
-4115 4112 4083 0
-4113 4116 0
-4112 -4083 4116 0
-4116 4113 4112 0
-4116 4113 4083 0
-4114 4117 0
-4084 4117 0
-4117 4114 4084 0
-4115 4118 0
-4114 -4084 4118 0
-4118 4115 4114 0
-4118 4115 4084 0
-4116 4119 0
-4115 -4084 4119 0
-4119 4116 4115 0
-4119 4116 4084 0
-4117 4120 0
-4085 4120 0
-4120 4117 4085 0
-4118 4121 0
-4117 -4085 4121 0
-4121 4118 4117 0
-4121 4118 4085 0
-4119 4122 0
-4118 -4085 4122 0
-4122 4119 4118 0
-4122 4119 4085 0
-4120 4123 0
-4086 4123 0
-4123 4120 4086 0
-4121 4124 0
-4120 -4086 4124 0
-4124 4121 4120 0
-4124 4121 4086 0
-4122 4125 0
-4121 -4086 4125 0
-4125 4122 4121 0
-4125 4122 4086 0
4125 0
-4126 57 0
-4126 85 0
4126 -57 -85 0
-4127 58 0
-4127 86 0
4127 -58 -86 0
-4128 59 0
-4128 87 0
4128 -59 -87 0
-4129 60 0
-4129 88 0
4129 -60 -88 0
-4130 61 0
-4130 89 0
4130 -61 -89 0
-4131 62 0
-4131 90 0
4131 -62 -90 0
-4132 63 0
-4132 91 0
4132 -63 -91 0
-4133 64 0
-4133 92 0
4133 -64 -92 0
-4134 65 0
-4134 93 0
4134 -65 -93 0
-4135 66 0
-4135 94 0
4135 -66 -94 0
-4136 67 0
-4136 95 0
4136 -67 -95 0
-4137 68 0
-4137 96 0
4137 -68 -96 0
-4138 69 0
-4138 97 0
4138 -69 -97 0
-4139 70 0
-4139 98 0
4139 -70 -98 0
-4126 4140 0
-4140 4126 0
-4140 4141 0
-4127 4141 0
-4141 4140 4127 0
-4140 -4127 4142 0
-4142 4140 0
-4142 4127 0
-4141 4143 0
-4128 4143 0
-4143 4141 4128 0
-4142 4144 0
-4141 -4128 4144 0
-4144 4142 4141 0
-4144 4142 4128 0
-4142 -4128 4145 0
-4145 4142 0
-4145 4128 0
-4143 4146 0
-4129 4146 0
-4146 4143 4129 0
-4144 4147 0
-4143 -4129 4147 0
-4147 4144 4143 0
-4147 4144 4129 0
-4145 4148 0
-4144 -4129 4148 0
-4148 4145 4144 0
-4148 4145 4129 0
-4146 4149 0
-4130 4149 0
-4149 4146 4130 0
-4147 4150 0
-4146 -4130 4150 0
-4150 4147 4146 0
-4150 4147 4130 0
-4148 4151 0
-4147 -4130 4151 0
-4151 4148 4147 0
-4151 4148 4130 0
-4149 4152 0
-4131 4152 0
-4152 4149 4131 0
-4150 4153 0
-4149 -4131 4153 0
-4153 4150 4149 0
-4153 4150 4131 0
-4151 4154 0
-4150 -4131 4154 0
-4154 4151 4150 0
-4154 4151 4131 0
-4152 4155 0
-4132 4155 0
-4155 4152 4132 0
-4153 4156 0
-4152 -4132 4156 0
-4156 4153 4152 0
-4156 4153 4132 0
-4154 4157 0
-4153 -4132 4157 0
-4157 4154 4153 0
-4157 4154 4132 0
-4155 4158 0
-4133 4158 0
-4158 4155 4133 0
-4156 4159 0
-4155 -4133 4159 0
-4159 4156 4155 0
-4159 4156 4133 0
-4157 4160 0
-4156 -4133 4160 0
-4160 4157 4156 0
-4160 4157 4133 0
-4158 4161 0
-4134 4161 0
-4161 4158 4134 0
-4159 4162 0
-4158 -4134 4162 0
-4162 4159 4158 0
-4162 4159 4134 0
-4160 4163 0
-4159 -4134 4163 0
-4163 4160 4159 0
-4163 4160 4134 0
-4161 4164 0
-4135 4164 0
-4164 4161 4135 0
-4162 4165 0
-4161 -4135 4165 0
-4165 4162 4161 0
-4165 4162 4135 0
-4163 4166 0
-4162 -4135 4166 0
-4166 4163 4162 0
-4166 4163 4135 0
-4164 4167 0
-4136 4167 0
-4167 4164 4136 0
-4165 4168 0
-4164 -4136 4168 0
-4168 4165 4164 0
-4168 4165 4136 0
-4166 4169 0
-4165 -4136 4169 0
-4169 4166 4165 0
-4169 4166 4136 0
-4167 4170 0
-4137 4170 0
-4170 4167 4137 0
-4168 4171 0
-4167 -4137 4171 0
-4171 4168 4167 0
-4171 4168 4137 0
-4169 4172 0
-4168 -4137 4172 0
-4172 4169 4168 0
-4172 4169 4137 0
-4170 4173 0
-4138 4173 0
-4173 4170 4138 0
-4171 4174 0
-4170 -4138 4174 0
-4174 4171 4170 0
-4174 4171 4138 0
-4172 4175 0
-4171 -4138 4175 0
-4175 4172 4171 0
-4175 4172 4138 0
-4173 4176 0
-4139 4176 0
-4176 4173 4139 0
-4174 4177 0
-4173 -4139 4177 0
-4177 4174 4173 0
-4177 4174 4139 0
-4175 4178 0
-4174 -4139 4178 0
-4178 4175 4174 0
-4178 4175 4139 0
4178 0
-4179 57 0
-4179 99 0
4179 -57 -99 0
-4180 58 0
-4180 100 0
4180 -58 -100 0
-4181 59 0
-4181 101 0
4181 -59 -101 0
-4182 60 0
-4182 102 0
4182 -60 -102 0
-4183 61 0
-4183 103 0
4183 -61 -103 0
-4184 62 0
-4184 104 0
4184 -62 -104 0
-4185 63 0
-4185 105 0
4185 -63 -105 0
-4186 64 0
-4186 106 0
4186 -64 -106 0
-4187 65 0
-4187 107 0
4187 -65 -107 0
-4188 66 0
-4188 108 0
4188 -66 -108 0
-4189 67 0
-4189 109 0
4189 -67 -109 0
-4190 68 0
-4190 110 0
4190 -68 -110 0
-4191 69 0
-4191 111 0
4191 -69 -111 0
-4192 70 0
-4192 112 0
4192 -70 -112 0
-4179 4193 0
-4193 4179 0
-4193 4194 0
-4180 4194 0
-4194 4193 4180 0
-4193 -4180 4195 0
-4195 4193 0
-4195 4180 0
-4194 4196 0
-4181 4196 0
-4196 4194 4181 0
-4195 4197 0
-4194 -4181 4197 0
-4197 4195 4194 0
-4197 4195 4181 0
-4195 -4181 4198 0
-4198 4195 0
-4198 4181 0
-4196 4199 0
-4182 4199 0
-4199 4196 4182 0
-4197 4200 0
-4196 -4182 4200 0
-4200 4197 4196 0
-4200 4197 4182 0
-4198 4201 0
-4197 -4182 4201 0
-4201 4198 4197 0
-4201 4198 4182 0
-4199 4202 0
-4183 4202 0
-4202 4199 4183 0
-4200 4203 0
-4199 -4183 4203 0
-4203 4200 4199 0
-4203 4200 4183 0
-4201 4204 0
-4200 -4183 4204 0
-4204 4201 4200 0
-4204 4201 4183 0
-4202 4205 0
-4184 4205 0
-4205 4202 4184 0
-4203 4206 0
-4202 -4184 4206 0
-4206 4203 4202 0
-4206 4203 4184 0
-4204 4207 0
-4203 -4184 4207 0
-4207 4204 4203 0
-4207 4204 4184 0
-4205 4208 0
-4185 4208 0
-4208 4205 4185 0
-4206 4209 0
-4205 -4185 4209 0
-4209 4206 4205 0
-4209 4206 4185 0
-4207 4210 0
-4206 -4185 4210 0
-4210 4207 4206 0
-4210 4207 4185 0
-4208 4211 0
-4186 4211 0
-4211 4208 4186 0
-4209 4212 0
-4208 -4186 4212 0
-4212 4209 4208 0
-4212 4209 4186 0
-4210 4213 0
-4209 -4186 4213 0
-4213 4210 4209 0
-4213 4210 4186 0
-4211 4214 0
-4187 4214 0
-4214 4211 4187 0
-4212 4215 0
-4211 -4187 4215 0
-4215 4212 4211 0
-4215 4212 4187 0
-4213 4216 0
-4212 -4187 4216 0
-4216 4213 4212 0
-4216 4213 4187 0
-4214 4217 0
-4188 4217 0
-4217 4214 4188 0
-4215 4218 0
-4214 -4188 4218 0
-4218 4215 4214 0
-4218 4215 4188 0
-4216 4219 0
-4215 -4188 4219 0
-4219 4216 4215 0
-4219 4216 4188 0
-4217 4220 0
-4189 4220 0
-4220 4217 4189 0
-4218 4221 0
-4217 -4189 4221 0
-4221 4218 4217 0
-4221 4218 4189 0
-4219 4222 0
-4218 -4189 4222 0
-4222 4219 4218 0
-4222 4219 4189 0
-4220 4223 0
-4190 4223 0
-4223 4220 4190 0
-4221 4224 0
-4220 -4190 4224 0
-4224 4221 4220 0
-4224 4221 4190 0
-4222 4225 0
-4221 -4190 4225 0
-4225 4222 4221 0
-4225 4222 4190 0
-4223 4226 0
-4191 4226 0
-4226 4223 4191 0
-4224 4227 0
-4223 -4191 4227 0
-4227 4224 4223 0
-4227 4224 4191 0
-4225 4228 0
-4224 -4191 4228 0
-4228 4225 4224 0
-4228 4225 4191 0
-4226 4229 0
-4192 4229 0
-4229 4226 4192 0
-4227 4230 0
-4226 -4192 4230 0
-4230 4227 4226 0
-4230 4227 4192 0
-4228 4231 0
-4227 -4192 4231 0
-4231 4228 4227 0
-4231 4228 4192 0
4231 0
-4232 57 0
-4232 113 0
4232 -57 -113 0
-4233 58 0
-4233 114 0
4233 -58 -114 0
-4234 59 0
-4234 115 0
4234 -59 -115 0
-4235 60 0
-4235 116 0
4235 -60 -116 0
-4236 61 0
-4236 117 0
4236 -61 -117 0
-4237 62 0
-4237 118 0
4237 -62 -118 0
-4238 63 0
-4238 119 0
4238 -63 -119 0
-4239 64 0
-4239 120 0
4239 -64 -120 0
-4240 65 0
-4240 121 0
4240 -65 -121 0
-4241 66 0
-4241 122 0
4241 -66 -122 0
-4242 67 0
-4242 123 0
4242 -67 -123 0
-4243 68 0
-4243 124 0
4243 -68 -124 0
-4244 69 0
-4244 125 0
4244 -69 -125 0
-4245 70 0
-4245 126 0
4245 -70 -126 0
-4232 4246 0
-4246 4232 0
-4246 4247 0
-4233 4247 0
-4247 4246 4233 0
-4246 -4233 4248 0
-4248 4246 0
-4248 4233 0
-4247 4249 0
-4234 4249 0
-4249 4247 4234 0
-4248 4250 0
-4247 -4234 4250 0
-4250 4248 4247 0
-4250 4248 4234 0
-4248 -4234 4251 0
-4251 4248 0
-4251 4234 0
-4249 4252 0
-4235 4252 0
-4252 4249 4235 0
-4250 4253 0
-4249 -4235 4253 0
-4253 4250 4249 0
-4253 4250 4235 0
-4251 4254 0
-4250 -4235 4254 0
-4254 4251 4250 0
-4254 4251 4235 0
-4252 4255 0
-4236 4255 0
-4255 4252 4236 0
-4253 4256 0
-4252 -4236 4256 0
-4256 4253 4252 0
-4256 4253 4236 0
-4254 4257 0
-4253 -4236 4257 0
-4257 4254 4253 0
-4257 4254 4236 0
-4255 4258 0
-4237 4258 0
-4258 4255 4237 0
-4256 4259 0
-4255 -4237 4259 0
-4259 4256 4255 0
-4259 4256 4237 0
-4257 4260 0
-4256 -4237 4260 0
-4260 4257 4256 0
-4260 4257 4237 0
-4258 4261 0
-4238 4261 0
-4261 4258 4238 0
-4259 4262 0
-4258 -4238 4262 0
-4262 4259 4258 0
-4262 4259 4238 0
-4260 4263 0
-4259 -4238 4263 0
-4263 4260 4259 0
-4263 4260 4238 0
-4261 4264 0
-4239 4264 0
-4264 4261 4239 0
-4262 4265 0
-4261 -4239 4265 0
-4265 4262 4261 0
-4265 4262 4239 0
-4263 4266 0
-4262 -4239 4266 0
-4266 4263 4262 0
-4266 4263 4239 0
-4264 4267 0
-4240 4267 0
-4267 4264 4240 0
-4265 4268 0
-4264 -4240 4268 0
-4268 4265 4264 0
-4268 4265 4240 0
-4266 4269 0
-4265 -4240 4269 0
-4269 4266 4265 0
-4269 4266 4240 0
-4267 4270 0
-4241 4270 0
-4270 4267 4241 0
-4268 4271 0
-4267 -4241 4271 0
-4271 4268 4267 0
-4271 4268 4241 0
-4269 4272 0
-4268 -4241 4272 0
-4272 4269 4268 0
-4272 4269 4241 0
-4270 4273 0
-4242 4273 0
-4273 4270 4242 0
-4271 4274 0
-4270 -4242 4274 0
-4274 4271 4270 0
-4274 4271 4242 0
-4272 4275 0
-4271 -4242 4275 0
-4275 4272 4271 0
-4275 4272 4242 0
-4273 4276 0
-4243 4276 0
-4276 4273 4243 0
-4274 4277 0
-4273 -4243 4277 0
-4277 4274 4273 0
-4277 4274 4243 0
-4275 4278 0
-4274 -4243 4278 0
-4278 4275 4274 0
-4278 4275 4243 0
-4276 4279 0
-4244 4279 0
-4279 4276 4244 0
-4277 4280 0
-4276 -4244 4280 0
-4280 4277 4276 0
-4280 4277 4244 0
-4278 4281 0
-4277 -4244 4281 0
-4281 4278 4277 0
-4281 4278 4244 0
-4279 4282 0
-4245 4282 0
-4282 4279 4245 0
-4280 4283 0
-4279 -4245 4283 0
-4283 4280 4279 0
-4283 4280 4245 0
-4281 4284 0
-4280 -4245 4284 0
-4284 4281 4280 0
-4284 4281 4245 0
4284 0
-4285 57 0
-4285 127 0
4285 -57 -127 0
-4286 58 0
-4286 128 0
4286 -58 -128 0
-4287 59 0
-4287 129 0
4287 -59 -129 0
-4288 60 0
-4288 130 0
4288 -60 -130 0
-4289 61 0
-4289 131 0
4289 -61 -131 0
-4290 62 0
-4290 132 0
4290 -62 -132 0
-4291 63 0
-4291 133 0
4291 -63 -133 0
-4292 64 0
-4292 134 0
4292 -64 -134 0
-4293 65 0
-4293 135 0
4293 -65 -135 0
-4294 66 0
-4294 136 0
4294 -66 -136 0
-4295 67 0
-4295 137 0
4295 -67 -137 0
-4296 68 0
-4296 138 0
4296 -68 -138 0
-4297 69 0
-4297 139 0
4297 -69 -139 0
-4298 70 0
-4298 140 0
4298 -70 -140 0
-4285 4299 0
-4299 4285 0
-4299 4300 0
-4286 4300 0
-4300 4299 4286 0
-4299 -4286 4301 0
-4301 4299 0
-4301 4286 0
-4300 4302 0
-4287 4302 0
-4302 4300 4287 0
-4301 4303 0
-4300 -4287 4303 0
-4303 4301 4300 0
-4303 4301 4287 0
-4301 -4287 4304 0
-4304 4301 0
-4304 4287 0
-4302 4305 0
-4288 4305 0
-4305 4302 4288 0
-4303 4306 0
-4302 -4288 4306 0
-4306 4303 4302 0
-4306 4303 4288 0
-4304 4307 0
-4303 -4288 4307 0
-4307 4304 4303 0
-4307 4304 4288 0
-4305 4308 0
-4289 4308 0
-4308 4305 4289 0
-4306 4309 0
-4305 -4289 4309 0
-4309 4306 4305 0
-4309 4306 4289 0
-4307 4310 0
-4306 -4289 4310 0
-4310 4307 4306 0
-4310 4307 4289 0
-4308 4311 0
-4290 4311 0
-4311 4308 4290 0
-4309 4312 0
-4308 -4290 4312 0
-4312 4309 4308 0
-4312 4309 4290 0
-4310 4313 0
-4309 -4290 4313 0
-4313 4310 4309 0
-4313 4310 4290 0
-4311 4314 0
-4291 4314 0
-4314 4311 4291 0
-4312 4315 0
-4311 -4291 4315 0
-4315 4312 4311 0
-4315 4312 4291 0
-4313 4316 0
-4312 -4291 4316 0
-4316 4313 4312 0
-4316 4313 4291 0
-4314 4317 0
-4292 4317 0
-4317 4314 4292 0
-4315 4318 0
-4314 -4292 4318 0
-4318 4315 4314 0
-4318 4315 4292 0
-4316 4319 0
-4315 -4292 4319 0
-4319 4316 4315 0
-4319 4316 4292 0
-4317 4320 0
-4293 4320 0
-4320 4317 4293 0
-4318 4321 0
-4317 -4293 4321 0
-4321 4318 4317 0
-4321 4318 4293 0
-4319 4322 0
-4318 -4293 4322 0
-4322 4319 4318 0
-4322 4319 4293 0
-4320 4323 0
-4294 4323 0
-4323 4320 4294 0
-4321 4324 0
-4320 -4294 4324 0
-4324 4321 4320 0
-4324 4321 4294 0
-4322 4325 0
-4321 -4294 4325 0
-4325 4322 4321 0
-4325 4322 4294 0
-4323 4326 0
-4295 4326 0
-4326 4323 4295 0
-4324 4327 0
-4323 -4295 4327 0
-4327 4324 4323 0
-4327 4324 4295 0
-4325 4328 0
-4324 -4295 4328 0
-4328 4325 4324 0
-4328 4325 4295 0
-4326 4329 0
-4296 4329 0
-4329 4326 4296 0
-4327 4330 0
-4326 -4296 4330 0
-4330 4327 4326 0
-4330 4327 4296 0
-4328 4331 0
-4327 -4296 4331 0
-4331 4328 4327 0
-4331 4328 4296 0
-4329 4332 0
-4297 4332 0
-4332 4329 4297 0
-4330 4333 0
-4329 -4297 4333 0
-4333 4330 4329 0
-4333 4330 4297 0
-4331 4334 0
-4330 -4297 4334 0
-4334 4331 4330 0
-4334 4331 4297 0
-4332 4335 0
-4298 4335 0
-4335 4332 4298 0
-4333 4336 0
-4332 -4298 4336 0
-4336 4333 4332 0
-4336 4333 4298 0
-4334 4337 0
-4333 -4298 4337 0
-4337 4334 4333 0
-4337 4334 4298 0
4337 0
-4338 57 0
-4338 141 0
4338 -57 -141 0
-4339 58 0
-4339 142 0
4339 -58 -142 0
-4340 59 0
-4340 143 0
4340 -59 -143 0
-4341 60 0
-4341 144 0
4341 -60 -144 0
-4342 61 0
-4342 145 0
4342 -61 -145 0
-4343 62 0
-4343 146 0
4343 -62 -146 0
-4344 63 0
-4344 147 0
4344 -63 -147 0
-4345 64 0
-4345 148 0
4345 -64 -148 0
-4346 65 0
-4346 149 0
4346 -65 -149 0
-4347 66 0
-4347 150 0
4347 -66 -150 0
-4348 67 0
-4348 151 0
4348 -67 -151 0
-4349 68 0
-4349 152 0
4349 -68 -152 0
-4350 69 0
-4350 153 0
4350 -69 -153 0
-4351 70 0
-4351 154 0
4351 -70 -154 0
-4338 4352 0
-4352 4338 0
-4352 4353 0
-4339 4353 0
-4353 4352 4339 0
-4352 -4339 4354 0
-4354 4352 0
-4354 4339 0
-4353 4355 0
-4340 4355 0
-4355 4353 4340 0
-4354 4356 0
-4353 -4340 4356 0
-4356 4354 4353 0
-4356 4354 4340 0
-4354 -4340 4357 0
-4357 4354 0
-4357 4340 0
-4355 4358 0
-4341 4358 0
-4358 4355 4341 0
-4356 4359 0
-4355 -4341 4359 0
-4359 4356 4355 0
-4359 4356 4341 0
-4357 4360 0
-4356 -4341 4360 0
-4360 4357 4356 0
-4360 4357 4341 0
-4358 4361 0
-4342 4361 0
-4361 4358 4342 0
-4359 4362 0
-4358 -4342 4362 0
-4362 4359 4358 0
-4362 4359 4342 0
-4360 4363 0
-4359 -4342 4363 0
-4363 4360 4359 0
-4363 4360 4342 0
-4361 4364 0
-4343 4364 0
-4364 4361 4343 0
-4362 4365 0
-4361 -4343 4365 0
-4365 4362 4361 0
-4365 4362 4343 0
-4363 4366 0
-4362 -4343 4366 0
-4366 4363 4362 0
-4366 4363 4343 0
-4364 4367 0
-4344 4367 0
-4367 4364 4344 0
-4365 4368 0
-4364 -4344 4368 0
-4368 4365 4364 0
-4368 4365 4344 0
-4366 4369 0
-4365 -4344 4369 0
-4369 4366 4365 0
-4369 4366 4344 0
-4367 4370 0
-4345 4370 0
-4370 4367 4345 0
-4368 4371 0
-4367 -4345 4371 0
-4371 4368 4367 0
-4371 4368 4345 0
-4369 4372 0
-4368 -4345 4372 0
-4372 4369 4368 0
-4372 4369 4345 0
-4370 4373 0
-4346 4373 0
-4373 4370 4346 0
-4371 4374 0
-4370 -4346 4374 0
-4374 4371 4370 0
-4374 4371 4346 0
-4372 4375 0
-4371 -4346 4375 0
-4375 4372 4371 0
-4375 4372 4346 0
-4373 4376 0
-4347 4376 0
-4376 4373 4347 0
-4374 4377 0
-4373 -4347 4377 0
-4377 4374 4373 0
-4377 4374 4347 0
-4375 4378 0
-4374 -4347 4378 0
-4378 4375 4374 0
-4378 4375 4347 0
-4376 4379 0
-4348 4379 0
-4379 4376 4348 0
-4377 4380 0
-4376 -4348 4380 0
-4380 4377 4376 0
-4380 4377 4348 0
-4378 4381 0
-4377 -4348 4381 0
-4381 4378 4377 0
-4381 4378 4348 0
-4379 4382 0
-4349 4382 0
-4382 4379 4349 0
-4380 4383 0
-4379 -4349 4383 0
-4383 4380 4379 0
-4383 4380 4349 0
-4381 4384 0
-4380 -4349 4384 0
-4384 4381 4380 0
-4384 4381 4349 0
-4382 4385 0
-4350 4385 0
-4385 4382 4350 0
-4383 4386 0
-4382 -4350 4386 0
-4386 4383 4382 0
-4386 4383 4350 0
-4384 4387 0
-4383 -4350 4387 0
-4387 4384 4383 0
-4387 4384 4350 0
-4385 4388 0
-4351 4388 0
-4388 4385 4351 0
-4386 4389 0
-4385 -4351 4389 0
-4389 4386 4385 0
-4389 4386 4351 0
-4387 4390 0
-4386 -4351 4390 0
-4390 4387 4386 0
-4390 4387 4351 0
4390 0
-4391 57 0
-4391 155 0
4391 -57 -155 0
-4392 58 0
-4392 156 0
4392 -58 -156 0
-4393 59 0
-4393 157 0
4393 -59 -157 0
-4394 60 0
-4394 158 0
4394 -60 -158 0
-4395 61 0
-4395 159 0
4395 -61 -159 0
-4396 62 0
-4396 160 0
4396 -62 -160 0
-4397 63 0
-4397 161 0
4397 -63 -161 0
-4398 64 0
-4398 162 0
4398 -64 -162 0
-4399 65 0
-4399 163 0
4399 -65 -163 0
-4400 66 0
-4400 164 0
4400 -66 -164 0
-4401 67 0
-4401 165 0
4401 -67 -165 0
-4402 68 0
-4402 166 0
4402 -68 -166 0
-4403 69 0
-4403 167 0
4403 -69 -167 0
-4404 70 0
-4404 168 0
4404 -70 -168 0
-4391 4405 0
-4405 4391 0
-4405 4406 0
-4392 4406 0
-4406 4405 4392 0
-4405 -4392 4407 0
-4407 4405 0
-4407 4392 0
-4406 4408 0
-4393 4408 0
-4408 4406 4393 0
-4407 4409 0
-4406 -4393 4409 0
-4409 4407 4406 0
-4409 4407 4393 0
-4407 -4393 4410 0
-4410 4407 0
-4410 4393 0
-4408 4411 0
-4394 4411 0
-4411 4408 4394 0
-4409 4412 0
-4408 -4394 4412 0
-4412 4409 4408 0
-4412 4409 4394 0
-4410 4413 0
-4409 -4394 4413 0
-4413 4410 4409 0
-4413 4410 4394 0
-4411 4414 0
-4395 4414 0
-4414 4411 4395 0
-4412 4415 0
-4411 -4395 4415 0
-4415 4412 4411 0
-4415 4412 4395 0
-4413 4416 0
-4412 -4395 4416 0
-4416 4413 4412 0
-4416 4413 4395 0
-4414 4417 0
-4396 4417 0
-4417 4414 4396 0
-4415 4418 0
-4414 -4396 4418 0
-4418 4415 4414 0
-4418 4415 4396 0
-4416 4419 0
-4415 -4396 4419 0
-4419 4416 4415 0
-4419 4416 4396 0
-4417 4420 0
-4397 4420 0
-4420 4417 4397 0
-4418 4421 0
-4417 -4397 4421 0
-4421 4418 4417 0
-4421 4418 4397 0
-4419 4422 0
-4418 -4397 4422 0
-4422 4419 4418 0
-4422 4419 4397 0
-4420 4423 0
-4398 4423 0
-4423 4420 4398 0
-4421 4424 0
-4420 -4398 4424 0
-4424 4421 4420 0
-4424 4421 4398 0
-4422 4425 0
-4421 -4398 4425 0
-4425 4422 4421 0
-4425 4422 4398 0
-4423 4426 0
-4399 4426 0
-4426 4423 4399 0
-4424 4427 0
-4423 -4399 4427 0
-4427 4424 4423 0
-4427 4424 4399 0
-4425 4428 0
-4424 -4399 4428 0
-4428 4425 4424 0
-4428 4425 4399 0
-4426 4429 0
-4400 4429 0
-4429 4426 4400 0
-4427 4430 0
-4426 -4400 4430 0
-4430 4427 4426 0
-4430 4427 4400 0
-4428 4431 0
-4427 -4400 4431 0
-4431 4428 4427 0
-4431 4428 4400 0
-4429 4432 0
-4401 4432 0
-4432 4429 4401 0
-4430 4433 0
-4429 -4401 4433 0
-4433 4430 4429 0
-4433 4430 4401 0
-4431 4434 0
-4430 -4401 4434 0
-4434 4431 4430 0
-4434 4431 4401 0
-4432 4435 0
-4402 4435 0
-4435 4432 4402 0
-4433 4436 0
-4432 -4402 4436 0
-4436 4433 4432 0
-4436 4433 4402 0
-4434 4437 0
-4433 -4402 4437 0
-4437 4434 4433 0
-4437 4434 4402 0
-4435 4438 0
-4403 4438 0
-4438 4435 4403 0
-4436 4439 0
-4435 -4403 4439 0
-4439 4436 4435 0
-4439 4436 4403 0
-4437 4440 0
-4436 -4403 4440 0
-4440 4437 4436 0
-4440 4437 4403 0
-4438 4441 0
-4404 4441 0
-4441 4438 4404 0
-4439 4442 0
-4438 -4404 4442 0
-4442 4439 4438 0
-4442 4439 4404 0
-4440 4443 0
-4439 -4404 4443 0
-4443 4440 4439 0
-4443 4440 4404 0
4443 0
-4444 71 0
-4444 85 0
4444 -71 -85 0
-4445 72 0
-4445 86 0
4445 -72 -86 0
-4446 73 0
-4446 87 0
4446 -73 -87 0
-4447 74 0
-4447 88 0
4447 -74 -88 0
-4448 75 0
-4448 89 0
4448 -75 -89 0
-4449 76 0
-4449 90 0
4449 -76 -90 0
-4450 77 0
-4450 91 0
4450 -77 -91 0
-4451 78 0
-4451 92 0
4451 -78 -92 0
-4452 79 0
-4452 93 0
4452 -79 -93 0
-4453 80 0
-4453 94 0
4453 -80 -94 0
-4454 81 0
-4454 95 0
4454 -81 -95 0
-4455 82 0
-4455 96 0
4455 -82 -96 0
-4456 83 0
-4456 97 0
4456 -83 -97 0
-4457 84 0
-4457 98 0
4457 -84 -98 0
-4444 4458 0
-4458 4444 0
-4458 4459 0
-4445 4459 0
-4459 4458 4445 0
-4458 -4445 4460 0
-4460 4458 0
-4460 4445 0
-4459 4461 0
-4446 4461 0
-4461 4459 4446 0
-4460 4462 0
-4459 -4446 4462 0
-4462 4460 4459 0
-4462 4460 4446 0
-4460 -4446 4463 0
-4463 4460 0
-4463 4446 0
-4461 4464 0
-4447 4464 0
-4464 4461 4447 0
-4462 4465 0
-4461 -4447 4465 0
-4465 4462 4461 0
-4465 4462 4447 0
-4463 4466 0
-4462 -4447 4466 0
-4466 4463 4462 0
-4466 4463 4447 0
-4464 4467 0
-4448 4467 0
-4467 4464 4448 0
-4465 4468 0
-4464 -4448 4468 0
-4468 4465 4464 0
-4468 4465 4448 0
-4466 4469 0
-4465 -4448 4469 0
-4469 4466 4465 0
-4469 4466 4448 0
-4467 4470 0
-4449 4470 0
-4470 4467 4449 0
-4468 4471 0
-4467 -4449 4471 0
-4471 4468 4467 0
-4471 4468 4449 0
-4469 4472 0
-4468 -4449 4472 0
-4472 4469 4468 0
-4472 4469 4449 0
-4470 4473 0
-4450 4473 0
-4473 4470 4450 0
-4471 4474 0
-4470 -4450 4474 0
-4474 4471 4470 0
-4474 4471 4450 0
-4472 4475 0
-4471 -4450 4475 0
-4475 4472 4471 0
-4475 4472 4450 0
-4473 4476 0
-4451 4476 0
-4476 4473 4451 0
-4474 4477 0
-4473 -4451 4477 0
-4477 4474 4473 0
-4477 4474 4451 0
-4475 4478 0
-4474 -4451 4478 0
-4478 4475 4474 0
-4478 4475 4451 0
-4476 4479 0
-4452 4479 0
-4479 4476 4452 0
-4477 4480 0
-4476 -4452 4480 0
-4480 4477 4476 0
-4480 4477 4452 0
-4478 4481 0
-4477 -4452 4481 0
-4481 4478 4477 0
-4481 4478 4452 0
-4479 4482 0
-4453 4482 0
-4482 4479 4453 0
-4480 4483 0
-4479 -4453 4483 0
-4483 4480 4479 0
-4483 4480 4453 0
-4481 4484 0
-4480 -4453 4484 0
-4484 4481 4480 0
-4484 4481 4453 0
-4482 4485 0
-4454 4485 0
-4485 4482 4454 0
-4483 4486 0
-4482 -4454 4486 0
-4486 4483 4482 0
-4486 4483 4454 0
-4484 4487 0
-4483 -4454 4487 0
-4487 4484 4483 0
-4487 4484 4454 0
-4485 4488 0
-4455 4488 0
-4488 4485 4455 0
-4486 4489 0
-4485 -4455 4489 0
-4489 4486 4485 0
-4489 4486 4455 0
-4487 4490 0
-4486 -4455 4490 0
-4490 4487 4486 0
-4490 4487 4455 0
-4488 4491 0
-4456 4491 0
-4491 4488 4456 0
-4489 4492 0
-4488 -4456 4492 0
-4492 4489 4488 0
-4492 4489 4456 0
-4490 4493 0
-4489 -4456 4493 0
-4493 4490 4489 0
-4493 4490 4456 0
-4491 4494 0
-4457 4494 0
-4494 4491 4457 0
-4492 4495 0
-4491 -4457 4495 0
-4495 4492 4491 0
-4495 4492 4457 0
-4493 4496 0
-4492 -4457 4496 0
-4496 4493 4492 0
-4496 4493 4457 0
4496 0
-4497 71 0
-4497 99 0
4497 -71 -99 0
-4498 72 0
-4498 100 0
4498 -72 -100 0
-4499 73 0
-4499 101 0
4499 -73 -101 0
-4500 74 0
-4500 102 0
4500 -74 -102 0
-4501 75 0
-4501 103 0
4501 -75 -103 0
-4502 76 0
-4502 104 0
4502 -76 -104 0
-4503 77 0
-4503 105 0
4503 -77 -105 0
-4504 78 0
-4504 106 0
4504 -78 -106 0
-4505 79 0
-4505 107 0
4505 -79 -107 0
-4506 80 0
-4506 108 0
4506 -80 -108 0
-4507 81 0
-4507 109 0
4507 -81 -109 0
-4508 82 0
-4508 110 0
4508 -82 -110 0
-4509 83 0
-4509 111 0
4509 -83 -111 0
-4510 84 0
-4510 112 0
4510 -84 -112 0
-4497 4511 0
-4511 4497 0
-4511 4512 0
-4498 4512 0
-4512 4511 4498 0
-4511 -4498 4513 0
-4513 4511 0
-4513 4498 0
-4512 4514 0
-4499 4514 0
-4514 4512 4499 0
-4513 4515 0
-4512 -4499 4515 0
-4515 4513 4512 0
-4515 4513 4499 0
-4513 -4499 4516 0
-4516 4513 0
-4516 4499 0
-4514 4517 0
-4500 4517 0
-4517 4514 4500 0
-4515 4518 0
-4514 -4500 4518 0
-4518 4515 4514 0
-4518 4515 4500 0
-4516 4519 0
-4515 -4500 4519 0
-4519 4516 4515 0
-4519 4516 4500 0
-4517 4520 0
-4501 4520 0
-4520 4517 4501 0
-4518 4521 0
-4517 -4501 4521 0
-4521 4518 4517 0
-4521 4518 4501 0
-4519 4522 0
-4518 -4501 4522 0
-4522 4519 4518 0
-4522 4519 4501 0
-4520 4523 0
-4502 4523 0
-4523 4520 4502 0
-4521 4524 0
-4520 -4502 4524 0
-4524 4521 4520 0
-4524 4521 4502 0
-4522 4525 0
-4521 -4502 4525 0
-4525 4522 4521 0
-4525 4522 4502 0
-4523 4526 0
-4503 4526 0
-4526 4523 4503 0
-4524 4527 0
-4523 -4503 4527 0
-4527 4524 4523 0
-4527 4524 4503 0
-4525 4528 0
-4524 -4503 4528 0
-4528 4525 4524 0
-4528 4525 4503 0
-4526 4529 0
-4504 4529 0
-4529 4526 4504 0
-4527 4530 0
-4526 -4504 4530 0
-4530 4527 4526 0
-4530 4527 4504 0
-4528 4531 0
-4527 -4504 4531 0
-4531 4528 4527 0
-4531 4528 4504 0
-4529 4532 0
-4505 4532 0
-4532 4529 4505 0
-4530 4533 0
-4529 -4505 4533 0
-4533 4530 4529 0
-4533 4530 4505 0
-4531 4534 0
-4530 -4505 4534 0
-4534 4531 4530 0
-4534 4531 4505 0
-4532 4535 0
-4506 4535 0
-4535 4532 4506 0
-4533 4536 0
-4532 -4506 4536 0
-4536 4533 4532 0
-4536 4533 4506 0
-4534 4537 0
-4533 -4506 4537 0
-4537 4534 4533 0
-4537 4534 4506 0
-4535 4538 0
-4507 4538 0
-4538 4535 4507 0
-4536 4539 0
-4535 -4507 4539 0
-4539 4536 4535 0
-4539 4536 4507 0
-4537 4540 0
-4536 -4507 4540 0
-4540 4537 4536 0
-4540 4537 4507 0
-4538 4541 0
-4508 4541 0
-4541 4538 4508 0
-4539 4542 0
-4538 -4508 4542 0
-4542 4539 4538 0
-4542 4539 4508 0
-4540 4543 0
-4539 -4508 4543 0
-4543 4540 4539 0
-4543 4540 4508 0
-4541 4544 0
-4509 4544 0
-4544 4541 4509 0
-4542 4545 0
-4541 -4509 4545 0
-4545 4542 4541 0
-4545 4542 4509 0
-4543 4546 0
-4542 -4509 4546 0
-4546 4543 4542 0
-4546 4543 4509 0
-4544 4547 0
-4510 4547 0
-4547 4544 4510 0
-4545 4548 0
-4544 -4510 4548 0
-4548 4545 4544 0
-4548 4545 4510 0
-4546 4549 0
-4545 -4510 4549 0
-4549 4546 4545 0
-4549 4546 4510 0
4549 0
-4550 71 0
-4550 113 0
4550 -71 -113 0
-4551 72 0
-4551 114 0
4551 -72 -114 0
-4552 73 0
-4552 115 0
4552 -73 -115 0
-4553 74 0
-4553 116 0
4553 -74 -116 0
-4554 75 0
-4554 117 0
4554 -75 -117 0
-4555 76 0
-4555 118 0
4555 -76 -118 0
-4556 77 0
-4556 119 0
4556 -77 -119 0
-4557 78 0
-4557 120 0
4557 -78 -120 0
-4558 79 0
-4558 121 0
4558 -79 -121 0
-4559 80 0
-4559 122 0
4559 -80 -122 0
-4560 81 0
-4560 123 0
4560 -81 -123 0
-4561 82 0
-4561 124 0
4561 -82 -124 0
-4562 83 0
-4562 125 0
4562 -83 -125 0
-4563 84 0
-4563 126 0
4563 -84 -126 0
-4550 4564 0
-4564 4550 0
-4564 4565 0
-4551 4565 0
-4565 4564 4551 0
-4564 -4551 4566 0
-4566 4564 0
-4566 4551 0
-4565 4567 0
-4552 4567 0
-4567 4565 4552 0
-4566 4568 0
-4565 -4552 4568 0
-4568 4566 4565 0
-4568 4566 4552 0
-4566 -4552 4569 0
-4569 4566 0
-4569 4552 0
-4567 4570 0
-4553 4570 0
-4570 4567 4553 0
-4568 4571 0
-4567 -4553 4571 0
-4571 4568 4567 0
-4571 4568 4553 0
-4569 4572 0
-4568 -4553 4572 0
-4572 4569 4568 0
-4572 4569 4553 0
-4570 4573 0
-4554 4573 0
-4573 4570 4554 0
-4571 4574 0
-4570 -4554 4574 0
-4574 4571 4570 0
-4574 4571 4554 0
-4572 4575 0
-4571 -4554 4575 0
-4575 4572 4571 0
-4575 4572 4554 0
-4573 4576 0
-4555 4576 0
-4576 4573 4555 0
-4574 4577 0
-4573 -4555 4577 0
-4577 4574 4573 0
-4577 4574 4555 0
-4575 4578 0
-4574 -4555 4578 0
-4578 4575 4574 0
-4578 4575 4555 0
-4576 4579 0
-4556 4579 0
-4579 4576 4556 0
-4577 4580 0
-4576 -4556 4580 0
-4580 4577 4576 0
-4580 4577 4556 0
-4578 4581 0
-4577 -4556 4581 0
-4581 4578 4577 0
-4581 4578 4556 0
-4579 4582 0
-4557 4582 0
-4582 4579 4557 0
-4580 4583 0
-4579 -4557 4583 0
-4583 4580 4579 0
-4583 4580 4557 0
-4581 4584 0
-4580 -4557 4584 0
-4584 4581 4580 0
-4584 4581 4557 0
-4582 4585 0
-4558 4585 0
-4585 4582 4558 0
-4583 4586 0
-4582 -4558 4586 0
-4586 4583 4582 0
-4586 4583 4558 0
-4584 4587 0
-4583 -4558 4587 0
-4587 4584 4583 0
-4587 4584 4558 0
-4585 4588 0
-4559 4588 0
-4588 4585 4559 0
-4586 4589 0
-4585 -4559 4589 0
-4589 4586 4585 0
-4589 4586 4559 0
-4587 4590 0
-4586 -4559 4590 0
-4590 4587 4586 0
-4590 4587 4559 0
-4588 4591 0
-4560 4591 0
-4591 4588 4560 0
-4589 4592 0
-4588 -4560 4592 0
-4592 4589 4588 0
-4592 4589 4560 0
-4590 4593 0
-4589 -4560 4593 0
-4593 4590 4589 0
-4593 4590 4560 0
-4591 4594 0
-4561 4594 0
-4594 4591 4561 0
-4592 4595 0
-4591 -4561 4595 0
-4595 4592 4591 0
-4595 4592 4561 0
-4593 4596 0
-4592 -4561 4596 0
-4596 4593 4592 0
-4596 4593 4561 0
-4594 4597 0
-4562 4597 0
-4597 4594 4562 0
-4595 4598 0
-4594 -4562 4598 0
-4598 4595 4594 0
-4598 4595 4562 0
-4596 4599 0
-4595 -4562 4599 0
-4599 4596 4595 0
-4599 4596 4562 0
-4597 4600 0
-4563 4600 0
-4600 4597 4563 0
-4598 4601 0
-4597 -4563 4601 0
-4601 4598 4597 0
-4601 4598 4563 0
-4599 4602 0
-4598 -4563 4602 0
-4602 4599 4598 0
-4602 4599 4563 0
4602 0
-4603 71 0
-4603 127 0
4603 -71 -127 0
-4604 72 0
-4604 128 0
4604 -72 -128 0
-4605 73 0
-4605 129 0
4605 -73 -129 0
-4606 74 0
-4606 130 0
4606 -74 -130 0
-4607 75 0
-4607 131 0
4607 -75 -131 0
-4608 76 0
-4608 132 0
4608 -76 -132 0
-4609 77 0
-4609 133 0
4609 -77 -133 0
-4610 78 0
-4610 134 0
4610 -78 -134 0
-4611 79 0
-4611 135 0
4611 -79 -135 0
-4612 80 0
-4612 136 0
4612 -80 -136 0
-4613 81 0
-4613 137 0
4613 -81 -137 0
-4614 82 0
-4614 138 0
4614 -82 -138 0
-4615 83 0
-4615 139 0
4615 -83 -139 0
-4616 84 0
-4616 140 0
4616 -84 -140 0
-4603 4617 0
-4617 4603 0
-4617 4618 0
-4604 4618 0
-4618 4617 4604 0
-4617 -4604 4619 0
-4619 4617 0
-4619 4604 0
-4618 4620 0
-4605 4620 0
-4620 4618 4605 0
-4619 4621 0
-4618 -4605 4621 0
-4621 4619 4618 0
-4621 4619 4605 0
-4619 -4605 4622 0
-4622 4619 0
-4622 4605 0
-4620 4623 0
-4606 4623 0
-4623 4620 4606 0
-4621 4624 0
-4620 -4606 4624 0
-4624 4621 4620 0
-4624 4621 4606 0
-4622 4625 0
-4621 -4606 4625 0
-4625 4622 4621 0
-4625 4622 4606 0
-4623 4626 0
-4607 4626 0
-4626 4623 4607 0
-4624 4627 0
-4623 -4607 4627 0
-4627 4624 4623 0
-4627 4624 4607 0
-4625 4628 0
-4624 -4607 4628 0
-4628 4625 4624 0
-4628 4625 4607 0
-4626 4629 0
-4608 4629 0
-4629 4626 4608 0
-4627 4630 0
-4626 -4608 4630 0
-4630 4627 4626 0
-4630 4627 4608 0
-4628 4631 0
-4627 -4608 4631 0
-4631 4628 4627 0
-4631 4628 4608 0
-4629 4632 0
-4609 4632 0
-4632 4629 4609 0
-4630 4633 0
-4629 -4609 4633 0
-4633 4630 4629 0
-4633 4630 4609 0
-4631 4634 0
-4630 -4609 4634 0
-4634 4631 4630 0
-4634 4631 4609 0
-4632 4635 0
-4610 4635 0
-4635 4632 4610 0
-4633 4636 0
-4632 -4610 4636 0
-4636 4633 4632 0
-4636 4633 4610 0
-4634 4637 0
-4633 -4610 4637 0
-4637 4634 4633 0
-4637 4634 4610 0
-4635 4638 0
-4611 4638 0
-4638 4635 4611 0
-4636 4639 0
-4635 -4611 4639 0
-4639 4636 4635 0
-4639 4636 4611 0
-4637 4640 0
-4636 -4611 4640 0
-4640 4637 4636 0
-4640 4637 4611 0
-4638 4641 0
-4612 4641 0
-4641 4638 4612 0
-4639 4642 0
-4638 -4612 4642 0
-4642 4639 4638 0
-4642 4639 4612 0
-4640 4643 0
-4639 -4612 4643 0
-4643 4640 4639 0
-4643 4640 4612 0
-4641 4644 0
-4613 4644 0
-4644 4641 4613 0
-4642 4645 0
-4641 -4613 4645 0
-4645 4642 4641 0
-4645 4642 4613 0
-4643 4646 0
-4642 -4613 4646 0
-4646 4643 4642 0
-4646 4643 4613 0
-4644 4647 0
-4614 4647 0
-4647 4644 4614 0
-4645 4648 0
-4644 -4614 4648 0
-4648 4645 4644 0
-4648 4645 4614 0
-4646 4649 0
-4645 -4614 4649 0
-4649 4646 4645 0
-4649 4646 4614 0
-4647 4650 0
-4615 4650 0
-4650 4647 4615 0
-4648 4651 0
-4647 -4615 4651 0
-4651 4648 4647 0
-4651 4648 4615 0
-4649 4652 0
-4648 -4615 4652 0
-4652 4649 4648 0
-4652 4649 4615 0
-4650 4653 0
-4616 4653 0
-4653 4650 4616 0
-4651 4654 0
-4650 -4616 4654 0
-4654 4651 4650 0
-4654 4651 4616 0
-4652 4655 0
-4651 -4616 4655 0
-4655 4652 4651 0
-4655 4652 4616 0
4655 0
-4656 71 0
-4656 141 0
4656 -71 -141 0
-4657 72 0
-4657 142 0
4657 -72 -142 0
-4658 73 0
-4658 143 0
4658 -73 -143 0
-4659 74 0
-4659 144 0
4659 -74 -144 0
-4660 75 0
-4660 145 0
4660 -75 -145 0
-4661 76 0
-4661 146 0
4661 -76 -146 0
-4662 77 0
-4662 147 0
4662 -77 -147 0
-4663 78 0
-4663 148 0
4663 -78 -148 0
-4664 79 0
-4664 149 0
4664 -79 -149 0
-4665 80 0
-4665 150 0
4665 -80 -150 0
-4666 81 0
-4666 151 0
4666 -81 -151 0
-4667 82 0
-4667 152 0
4667 -82 -152 0
-4668 83 0
-4668 153 0
4668 -83 -153 0
-4669 84 0
-4669 154 0
4669 -84 -154 0
-4656 4670 0
-4670 4656 0
-4670 4671 0
-4657 4671 0
-4671 4670 4657 0
-4670 -4657 4672 0
-4672 4670 0
-4672 4657 0
-4671 4673 0
-4658 4673 0
-4673 4671 4658 0
-4672 4674 0
-4671 -4658 4674 0
-4674 4672 4671 0
-4674 4672 4658 0
-4672 -4658 4675 0
-4675 4672 0
-4675 4658 0
-4673 4676 0
-4659 4676 0
-4676 4673 4659 0
-4674 4677 0
-4673 -4659 4677 0
-4677 4674 4673 0
-4677 4674 4659 0
-4675 4678 0
-4674 -4659 4678 0
-4678 4675 4674 0
-4678 4675 4659 0
-4676 4679 0
-4660 4679 0
-4679 4676 4660 0
-4677 4680 0
-4676 -4660 4680 0
-4680 4677 4676 0
-4680 4677 4660 0
-4678 4681 0
-4677 -4660 4681 0
-4681 4678 4677 0
-4681 4678 4660 0
-4679 4682 0
-4661 4682 0
-4682 4679 4661 0
-4680 4683 0
-4679 -4661 4683 0
-4683 4680 4679 0
-4683 4680 4661 0
-4681 4684 0
-4680 -4661 4684 0
-4684 4681 4680 0
-4684 4681 4661 0
-4682 4685 0
-4662 4685 0
-4685 4682 4662 0
-4683 4686 0
-4682 -4662 4686 0
-4686 4683 4682 0
-4686 4683 4662 0
-4684 4687 0
-4683 -4662 4687 0
-4687 4684 4683 0
-4687 4684 4662 0
-4685 4688 0
-4663 4688 0
-4688 4685 4663 0
-4686 4689 0
-4685 -4663 4689 0
-4689 4686 4685 0
-4689 4686 4663 0
-4687 4690 0
-4686 -4663 4690 0
-4690 4687 4686 0
-4690 4687 4663 0
-4688 4691 0
-4664 4691 0
-4691 4688 4664 0
-4689 4692 0
-4688 -4664 4692 0
-4692 4689 4688 0
-4692 4689 4664 0
-4690 4693 0
-4689 -4664 4693 0
-4693 4690 4689 0
-4693 4690 4664 0
-4691 4694 0
-4665 4694 0
-4694 4691 4665 0
-4692 4695 0
-4691 -4665 4695 0
-4695 4692 4691 0
-4695 4692 4665 0
-4693 4696 0
-4692 -4665 4696 0
-4696 4693 4692 0
-4696 4693 4665 0
-4694 4697 0
-4666 4697 0
-4697 4694 4666 0
-4695 4698 0
-4694 -4666 4698 0
-4698 4695 4694 0
-4698 4695 4666 0
-4696 4699 0
-4695 -4666 4699 0
-4699 4696 4695 0
-4699 4696 4666 0
-4697 4700 0
-4667 4700 0
-4700 4697 4667 0
-4698 4701 0
-4697 -4667 4701 0
-4701 4698 4697 0
-4701 4698 4667 0
-4699 4702 0
-4698 -4667 4702 0
-4702 4699 4698 0
-4702 4699 4667 0
-4700 4703 0
-4668 4703 0
-4703 4700 4668 0
-4701 4704 0
-4700 -4668 4704 0
-4704 4701 4700 0
-4704 4701 4668 0
-4702 4705 0
-4701 -4668 4705 0
-4705 4702 4701 0
-4705 4702 4668 0
-4703 4706 0
-4669 4706 0
-4706 4703 4669 0
-4704 4707 0
-4703 -4669 4707 0
-4707 4704 4703 0
-4707 4704 4669 0
-4705 4708 0
-4704 -4669 4708 0
-4708 4705 4704 0
-4708 4705 4669 0
4708 0
-4709 71 0
-4709 155 0
4709 -71 -155 0
-4710 72 0
-4710 156 0
4710 -72 -156 0
-4711 73 0
-4711 157 0
4711 -73 -157 0
-4712 74 0
-4712 158 0
4712 -74 -158 0
-4713 75 0
-4713 159 0
4713 -75 -159 0
-4714 76 0
-4714 160 0
4714 -76 -160 0
-4715 77 0
-4715 161 0
4715 -77 -161 0
-4716 78 0
-4716 162 0
4716 -78 -162 0
-4717 79 0
-4717 163 0
4717 -79 -163 0
-4718 80 0
-4718 164 0
4718 -80 -164 0
-4719 81 0
-4719 165 0
4719 -81 -165 0
-4720 82 0
-4720 166 0
4720 -82 -166 0
-4721 83 0
-4721 167 0
4721 -83 -167 0
-4722 84 0
-4722 168 0
4722 -84 -168 0
-4709 4723 0
-4723 4709 0
-4723 4724 0
-4710 4724 0
-4724 4723 4710 0
-4723 -4710 4725 0
-4725 4723 0
-4725 4710 0
-4724 4726 0
-4711 4726 0
-4726 4724 4711 0
-4725 4727 0
-4724 -4711 4727 0
-4727 4725 4724 0
-4727 4725 4711 0
-4725 -4711 4728 0
-4728 4725 0
-4728 4711 0
-4726 4729 0
-4712 4729 0
-4729 4726 4712 0
-4727 4730 0
-4726 -4712 4730 0
-4730 4727 4726 0
-4730 4727 4712 0
-4728 4731 0
-4727 -4712 4731 0
-4731 4728 4727 0
-4731 4728 4712 0
-4729 4732 0
-4713 4732 0
-4732 4729 4713 0
-4730 4733 0
-4729 -4713 4733 0
-4733 4730 4729 0
-4733 4730 4713 0
-4731 4734 0
-4730 -4713 4734 0
-4734 4731 4730 0
-4734 4731 4713 0
-4732 4735 0
-4714 4735 0
-4735 4732 4714 0
-4733 4736 0
-4732 -4714 4736 0
-4736 4733 4732 0
-4736 4733 4714 0
-4734 4737 0
-4733 -4714 4737 0
-4737 4734 4733 0
-4737 4734 4714 0
-4735 4738 0
-4715 4738 0
-4738 4735 4715 0
-4736 4739 0
-4735 -4715 4739 0
-4739 4736 4735 0
-4739 4736 4715 0
-4737 4740 0
-4736 -4715 4740 0
-4740 4737 4736 0
-4740 4737 4715 0
-4738 4741 0
-4716 4741 0
-4741 4738 4716 0
-4739 4742 0
-4738 -4716 4742 0
-4742 4739 4738 0
-4742 4739 4716 0
-4740 4743 0
-4739 -4716 4743 0
-4743 4740 4739 0
-4743 4740 4716 0
-4741 4744 0
-4717 4744 0
-4744 4741 4717 0
-4742 4745 0
-4741 -4717 4745 0
-4745 4742 4741 0
-4745 4742 4717 0
-4743 4746 0
-4742 -4717 4746 0
-4746 4743 4742 0
-4746 4743 4717 0
-4744 4747 0
-4718 4747 0
-4747 4744 4718 0
-4745 4748 0
-4744 -4718 4748 0
-4748 4745 4744 0
-4748 4745 4718 0
-4746 4749 0
-4745 -4718 4749 0
-4749 4746 4745 0
-4749 4746 4718 0
-4747 4750 0
-4719 4750 0
-4750 4747 4719 0
-4748 4751 0
-4747 -4719 4751 0
-4751 4748 4747 0
-4751 4748 4719 0
-4749 4752 0
-4748 -4719 4752 0
-4752 4749 4748 0
-4752 4749 4719 0
-4750 4753 0
-4720 4753 0
-4753 4750 4720 0
-4751 4754 0
-4750 -4720 4754 0
-4754 4751 4750 0
-4754 4751 4720 0
-4752 4755 0
-4751 -4720 4755 0
-4755 4752 4751 0
-4755 4752 4720 0
-4753 4756 0
-4721 4756 0
-4756 4753 4721 0
-4754 4757 0
-4753 -4721 4757 0
-4757 4754 4753 0
-4757 4754 4721 0
-4755 4758 0
-4754 -4721 4758 0
-4758 4755 4754 0
-4758 4755 4721 0
-4756 4759 0
-4722 4759 0
-4759 4756 4722 0
-4757 4760 0
-4756 -4722 4760 0
-4760 4757 4756 0
-4760 4757 4722 0
-4758 4761 0
-4757 -4722 4761 0
-4761 4758 4757 0
-4761 4758 4722 0
4761 0
-4762 85 0
-4762 99 0
4762 -85 -99 0
-4763 86 0
-4763 100 0
4763 -86 -100 0
-4764 87 0
-4764 101 0
4764 -87 -101 0
-4765 88 0
-4765 102 0
4765 -88 -102 0
-4766 89 0
-4766 103 0
4766 -89 -103 0
-4767 90 0
-4767 104 0
4767 -90 -104 0
-4768 91 0
-4768 105 0
4768 -91 -105 0
-4769 92 0
-4769 106 0
4769 -92 -106 0
-4770 93 0
-4770 107 0
4770 -93 -107 0
-4771 94 0
-4771 108 0
4771 -94 -108 0
-4772 95 0
-4772 109 0
4772 -95 -109 0
-4773 96 0
-4773 110 0
4773 -96 -110 0
-4774 97 0
-4774 111 0
4774 -97 -111 0
-4775 98 0
-4775 112 0
4775 -98 -112 0
-4762 4776 0
-4776 4762 0
-4776 4777 0
-4763 4777 0
-4777 4776 4763 0
-4776 -4763 4778 0
-4778 4776 0
-4778 4763 0
-4777 4779 0
-4764 4779 0
-4779 4777 4764 0
-4778 4780 0
-4777 -4764 4780 0
-4780 4778 4777 0
-4780 4778 4764 0
-4778 -4764 4781 0
-4781 4778 0
-4781 4764 0
-4779 4782 0
-4765 4782 0
-4782 4779 4765 0
-4780 4783 0
-4779 -4765 4783 0
-4783 4780 4779 0
-4783 4780 4765 0
-4781 4784 0
-4780 -4765 4784 0
-4784 4781 4780 0
-4784 4781 4765 0
-4782 4785 0
-4766 4785 0
-4785 4782 4766 0
-4783 4786 0
-4782 -4766 4786 0
-4786 4783 4782 0
-4786 4783 4766 0
-4784 4787 0
-4783 -4766 4787 0
-4787 4784 4783 0
-4787 4784 4766 0
-4785 4788 0
-4767 4788 0
-4788 4785 4767 0
-4786 4789 0
-4785 -4767 4789 0
-4789 4786 4785 0
-4789 4786 4767 0
-4787 4790 0
-4786 -4767 4790 0
-4790 4787 4786 0
-4790 4787 4767 0
-4788 4791 0
-4768 4791 0
-4791 4788 4768 0
-4789 4792 0
-4788 -4768 4792 0
-4792 4789 4788 0
-4792 4789 4768 0
-4790 4793 0
-4789 -4768 4793 0
-4793 4790 4789 0
-4793 4790 4768 0
-4791 4794 0
-4769 4794 0
-4794 4791 4769 0
-4792 4795 0
-4791 -4769 4795 0
-4795 4792 4791 0
-4795 4792 4769 0
-4793 4796 0
-4792 -4769 4796 0
-4796 4793 4792 0
-4796 4793 4769 0
-4794 4797 0
-4770 4797 0
-4797 4794 4770 0
-4795 4798 0
-4794 -4770 4798 0
-4798 4795 4794 0
-4798 4795 4770 0
-4796 4799 0
-4795 -4770 4799 0
-4799 4796 4795 0
-4799 4796 4770 0
-4797 4800 0
-4771 4800 0
-4800 4797 4771 0
-4798 4801 0
-4797 -4771 4801 0
-4801 4798 4797 0
-4801 4798 4771 0
-4799 4802 0
-4798 -4771 4802 0
-4802 4799 4798 0
-4802 4799 4771 0
-4800 4803 0
-4772 4803 0
-4803 4800 4772 0
-4801 4804 0
-4800 -4772 4804 0
-4804 4801 4800 0
-4804 4801 4772 0
-4802 4805 0
-4801 -4772 4805 0
-4805 4802 4801 0
-4805 4802 4772 0
-4803 4806 0
-4773 4806 0
-4806 4803 4773 0
-4804 4807 0
-4803 -4773 4807 0
-4807 4804 4803 0
-4807 4804 4773 0
-4805 4808 0
-4804 -4773 4808 0
-4808 4805 4804 0
-4808 4805 4773 0
-4806 4809 0
-4774 4809 0
-4809 4806 4774 0
-4807 4810 0
-4806 -4774 4810 0
-4810 4807 4806 0
-4810 4807 4774 0
-4808 4811 0
-4807 -4774 4811 0
-4811 4808 4807 0
-4811 4808 4774 0
-4809 4812 0
-4775 4812 0
-4812 4809 4775 0
-4810 4813 0
-4809 -4775 4813 0
-4813 4810 4809 0
-4813 4810 4775 0
-4811 4814 0
-4810 -4775 4814 0
-4814 4811 4810 0
-4814 4811 4775 0
4814 0
-4815 85 0
-4815 113 0
4815 -85 -113 0
-4816 86 0
-4816 114 0
4816 -86 -114 0
-4817 87 0
-4817 115 0
4817 -87 -115 0
-4818 88 0
-4818 116 0
4818 -88 -116 0
-4819 89 0
-4819 117 0
4819 -89 -117 0
-4820 90 0
-4820 118 0
4820 -90 -118 0
-4821 91 0
-4821 119 0
4821 -91 -119 0
-4822 92 0
-4822 120 0
4822 -92 -120 0
-4823 93 0
-4823 121 0
4823 -93 -121 0
-4824 94 0
-4824 122 0
4824 -94 -122 0
-4825 95 0
-4825 123 0
4825 -95 -123 0
-4826 96 0
-4826 124 0
4826 -96 -124 0
-4827 97 0
-4827 125 0
4827 -97 -125 0
-4828 98 0
-4828 126 0
4828 -98 -126 0
-4815 4829 0
-4829 4815 0
-4829 4830 0
-4816 4830 0
-4830 4829 4816 0
-4829 -4816 4831 0
-4831 4829 0
-4831 4816 0
-4830 4832 0
-4817 4832 0
-4832 4830 4817 0
-4831 4833 0
-4830 -4817 4833 0
-4833 4831 4830 0
-4833 4831 4817 0
-4831 -4817 4834 0
-4834 4831 0
-4834 4817 0
-4832 4835 0
-4818 4835 0
-4835 4832 4818 0
-4833 4836 0
-4832 -4818 4836 0
-4836 4833 4832 0
-4836 4833 4818 0
-4834 4837 0
-4833 -4818 4837 0
-4837 4834 4833 0
-4837 4834 4818 0
-4835 4838 0
-4819 4838 0
-4838 4835 4819 0
-4836 4839 0
-4835 -4819 4839 0
-4839 4836 4835 0
-4839 4836 4819 0
-4837 4840 0
-4836 -4819 4840 0
-4840 4837 4836 0
-4840 4837 4819 0
-4838 4841 0
-4820 4841 0
-4841 4838 4820 0
-4839 4842 0
-4838 -4820 4842 0
-4842 4839 4838 0
-4842 4839 4820 0
-4840 4843 0
-4839 -4820 4843 0
-4843 4840 4839 0
-4843 4840 4820 0
-4841 4844 0
-4821 4844 0
-4844 4841 4821 0
-4842 4845 0
-4841 -4821 4845 0
-4845 4842 4841 0
-4845 4842 4821 0
-4843 4846 0
-4842 -4821 4846 0
-4846 4843 4842 0
-4846 4843 4821 0
-4844 4847 0
-4822 4847 0
-4847 4844 4822 0
-4845 4848 0
-4844 -4822 4848 0
-4848 4845 4844 0
-4848 4845 4822 0
-4846 4849 0
-4845 -4822 4849 0
-4849 4846 4845 0
-4849 4846 4822 0
-4847 4850 0
-4823 4850 0
-4850 4847 4823 0
-4848 4851 0
-4847 -4823 4851 0
-4851 4848 4847 0
-4851 4848 4823 0
-4849 4852 0
-4848 -4823 4852 0
-4852 4849 4848 0
-4852 4849 4823 0
-4850 4853 0
-4824 4853 0
-4853 4850 4824 0
-4851 4854 0
-4850 -4824 4854 0
-4854 4851 4850 0
-4854 4851 4824 0
-4852 4855 0
-4851 -4824 4855 0
-4855 4852 4851 0
-4855 4852 4824 0
-4853 4856 0
-4825 4856 0
-4856 4853 4825 0
-4854 4857 0
-4853 -4825 4857 0
-4857 4854 4853 0
-4857 4854 4825 0
-4855 4858 0
-4854 -4825 4858 0
-4858 4855 4854 0
-4858 4855 4825 0
-4856 4859 0
-4826 4859 0
-4859 4856 4826 0
-4857 4860 0
-4856 -4826 4860 0
-4860 4857 4856 0
-4860 4857 4826 0
-4858 4861 0
-4857 -4826 4861 0
-4861 4858 4857 0
-4861 4858 4826 0
-4859 4862 0
-4827 4862 0
-4862 4859 4827 0
-4860 4863 0
-4859 -4827 4863 0
-4863 4860 4859 0
-4863 4860 4827 0
-4861 4864 0
-4860 -4827 4864 0
-4864 4861 4860 0
-4864 4861 4827 0
-4862 4865 0
-4828 4865 0
-4865 4862 4828 0
-4863 4866 0
-4862 -4828 4866 0
-4866 4863 4862 0
-4866 4863 4828 0
-4864 4867 0
-4863 -4828 4867 0
-4867 4864 4863 0
-4867 4864 4828 0
4867 0
-4868 85 0
-4868 127 0
4868 -85 -127 0
-4869 86 0
-4869 128 0
4869 -86 -128 0
-4870 87 0
-4870 129 0
4870 -87 -129 0
-4871 88 0
-4871 130 0
4871 -88 -130 0
-4872 89 0
-4872 131 0
4872 -89 -131 0
-4873 90 0
-4873 132 0
4873 -90 -132 0
-4874 91 0
-4874 133 0
4874 -91 -133 0
-4875 92 0
-4875 134 0
4875 -92 -134 0
-4876 93 0
-4876 135 0
4876 -93 -135 0
-4877 94 0
-4877 136 0
4877 -94 -136 0
-4878 95 0
-4878 137 0
4878 -95 -137 0
-4879 96 0
-4879 138 0
4879 -96 -138 0
-4880 97 0
-4880 139 0
4880 -97 -139 0
-4881 98 0
-4881 140 0
4881 -98 -140 0
-4868 4882 0
-4882 4868 0
-4882 4883 0
-4869 4883 0
-4883 4882 4869 0
-4882 -4869 4884 0
-4884 4882 0
-4884 4869 0
-4883 4885 0
-4870 4885 0
-4885 4883 4870 0
-4884 4886 0
-4883 -4870 4886 0
-4886 4884 4883 0
-4886 4884 4870 0
-4884 -4870 4887 0
-4887 4884 0
-4887 4870 0
-4885 4888 0
-4871 4888 0
-4888 4885 4871 0
-4886 4889 0
-4885 -4871 4889 0
-4889 4886 4885 0
-4889 4886 4871 0
-4887 4890 0
-4886 -4871 4890 0
-4890 4887 4886 0
-4890 4887 4871 0
-4888 4891 0
-4872 4891 0
-4891 4888 4872 0
-4889 4892 0
-4888 -4872 4892 0
-4892 4889 4888 0
-4892 4889 4872 0
-4890 4893 0
-4889 -4872 4893 0
-4893 4890 4889 0
-4893 4890 4872 0
-4891 4894 0
-4873 4894 0
-4894 4891 4873 0
-4892 4895 0
-4891 -4873 4895 0
-4895 4892 4891 0
-4895 4892 4873 0
-4893 4896 0
-4892 -4873 4896 0
-4896 4893 4892 0
-4896 4893 4873 0
-4894 4897 0
-4874 4897 0
-4897 4894 4874 0
-4895 4898 0
-4894 -4874 4898 0
-4898 4895 4894 0
-4898 4895 4874 0
-4896 4899 0
-4895 -4874 4899 0
-4899 4896 4895 0
-4899 4896 4874 0
-4897 4900 0
-4875 4900 0
-4900 4897 4875 0
-4898 4901 0
-4897 -4875 4901 0
-4901 4898 4897 0
-4901 4898 4875 0
-4899 4902 0
-4898 -4875 4902 0
-4902 4899 4898 0
-4902 4899 4875 0
-4900 4903 0
-4876 4903 0
-4903 4900 4876 0
-4901 4904 0
-4900 -4876 4904 0
-4904 4901 4900 0
-4904 4901 4876 0
-4902 4905 0
-4901 -4876 4905 0
-4905 4902 4901 0
-4905 4902 4876 0
-4903 4906 0
-4877 4906 0
-4906 4903 4877 0
-4904 4907 0
-4903 -4877 4907 0
-4907 4904 4903 0
-4907 4904 4877 0
-4905 4908 0
-4904 -4877 4908 0
-4908 4905 4904 0
-4908 4905 4877 0
-4906 4909 0
-4878 4909 0
-4909 4906 4878 0
-4907 4910 0
-4906 -4878 4910 0
-4910 4907 4906 0
-4910 4907 4878 0
-4908 4911 0
-4907 -4878 4911 0
-4911 4908 4907 0
-4911 4908 4878 0
-4909 4912 0
-4879 4912 0
-4912 4909 4879 0
-4910 4913 0
-4909 -4879 4913 0
-4913 4910 4909 0
-4913 4910 4879 0
-4911 4914 0
-4910 -4879 4914 0
-4914 4911 4910 0
-4914 4911 4879 0
-4912 4915 0
-4880 4915 0
-4915 4912 4880 0
-4913 4916 0
-4912 -4880 4916 0
-4916 4913 4912 0
-4916 4913 4880 0
-4914 4917 0
-4913 -4880 4917 0
-4917 4914 4913 0
-4917 4914 4880 0
-4915 4918 0
-4881 4918 0
-4918 4915 4881 0
-4916 4919 0
-4915 -4881 4919 0
-4919 4916 4915 0
-4919 4916 4881 0
-4917 4920 0
-4916 -4881 4920 0
-4920 4917 4916 0
-4920 4917 4881 0
4920 0
-4921 85 0
-4921 141 0
4921 -85 -141 0
-4922 86 0
-4922 142 0
4922 -86 -142 0
-4923 87 0
-4923 143 0
4923 -87 -143 0
-4924 88 0
-4924 144 0
4924 -88 -144 0
-4925 89 0
-4925 145 0
4925 -89 -145 0
-4926 90 0
-4926 146 0
4926 -90 -146 0
-4927 91 0
-4927 147 0
4927 -91 -147 0
-4928 92 0
-4928 148 0
4928 -92 -148 0
-4929 93 0
-4929 149 0
4929 -93 -149 0
-4930 94 0
-4930 150 0
4930 -94 -150 0
-4931 95 0
-4931 151 0
4931 -95 -151 0
-4932 96 0
-4932 152 0
4932 -96 -152 0
-4933 97 0
-4933 153 0
4933 -97 -153 0
-4934 98 0
-4934 154 0
4934 -98 -154 0
-4921 4935 0
-4935 4921 0
-4935 4936 0
-4922 4936 0
-4936 4935 4922 0
-4935 -4922 4937 0
-4937 4935 0
-4937 4922 0
-4936 4938 0
-4923 4938 0
-4938 4936 4923 0
-4937 4939 0
-4936 -4923 4939 0
-4939 4937 4936 0
-4939 4937 4923 0
-4937 -4923 4940 0
-4940 4937 0
-4940 4923 0
-4938 4941 0
-4924 4941 0
-4941 4938 4924 0
-4939 4942 0
-4938 -4924 4942 0
-4942 4939 4938 0
-4942 4939 4924 0
-4940 4943 0
-4939 -4924 4943 0
-4943 4940 4939 0
-4943 4940 4924 0
-4941 4944 0
-4925 4944 0
-4944 4941 4925 0
-4942 4945 0
-4941 -4925 4945 0
-4945 4942 4941 0
-4945 4942 4925 0
-4943 4946 0
-4942 -4925 4946 0
-4946 4943 4942 0
-4946 4943 4925 0
-4944 4947 0
-4926 4947 0
-4947 4944 4926 0
-4945 4948 0
-4944 -4926 4948 0
-4948 4945 4944 0
-4948 4945 4926 0
-4946 4949 0
-4945 -4926 4949 0
-4949 4946 4945 0
-4949 4946 4926 0
-4947 4950 0
-4927 4950 0
-4950 4947 4927 0
-4948 4951 0
-4947 -4927 4951 0
-4951 4948 4947 0
-4951 4948 4927 0
-4949 4952 0
-4948 -4927 4952 0
-4952 4949 4948 0
-4952 4949 4927 0
-4950 4953 0
-4928 4953 0
-4953 4950 4928 0
-4951 4954 0
-4950 -4928 4954 0
-4954 4951 4950 0
-4954 4951 4928 0
-4952 4955 0
-4951 -4928 4955 0
-4955 4952 4951 0
-4955 4952 4928 0
-4953 4956 0
-4929 4956 0
-4956 4953 4929 0
-4954 4957 0
-4953 -4929 4957 0
-4957 4954 4953 0
-4957 4954 4929 0
-4955 4958 0
-4954 -4929 4958 0
-4958 4955 4954 0
-4958 4955 4929 0
-4956 4959 0
-4930 4959 0
-4959 4956 4930 0
-4957 4960 0
-4956 -4930 4960 0
-4960 4957 4956 0
-4960 4957 4930 0
-4958 4961 0
-4957 -4930 4961 0
-4961 4958 4957 0
-4961 4958 4930 0
-4959 4962 0
-4931 4962 0
-4962 4959 4931 0
-4960 4963 0
-4959 -4931 4963 0
-4963 4960 4959 0
-4963 4960 4931 0
-4961 4964 0
-4960 -4931 4964 0
-4964 4961 4960 0
-4964 4961 4931 0
-4962 4965 0
-4932 4965 0
-4965 4962 4932 0
-4963 4966 0
-4962 -4932 4966 0
-4966 4963 4962 0
-4966 4963 4932 0
-4964 4967 0
-4963 -4932 4967 0
-4967 4964 4963 0
-4967 4964 4932 0
-4965 4968 0
-4933 4968 0
-4968 4965 4933 0
-4966 4969 0
-4965 -4933 4969 0
-4969 4966 4965 0
-4969 4966 4933 0
-4967 4970 0
-4966 -4933 4970 0
-4970 4967 4966 0
-4970 4967 4933 0
-4968 4971 0
-4934 4971 0
-4971 4968 4934 0
-4969 4972 0
-4968 -4934 4972 0
-4972 4969 4968 0
-4972 4969 4934 0
-4970 4973 0
-4969 -4934 4973 0
-4973 4970 4969 0
-4973 4970 4934 0
4973 0
-4974 85 0
-4974 155 0
4974 -85 -155 0
-4975 86 0
-4975 156 0
4975 -86 -156 0
-4976 87 0
-4976 157 0
4976 -87 -157 0
-4977 88 0
-4977 158 0
4977 -88 -158 0
-4978 89 0
-4978 159 0
4978 -89 -159 0
-4979 90 0
-4979 160 0
4979 -90 -160 0
-4980 91 0
-4980 161 0
4980 -91 -161 0
-4981 92 0
-4981 162 0
4981 -92 -162 0
-4982 93 0
-4982 163 0
4982 -93 -163 0
-4983 94 0
-4983 164 0
4983 -94 -164 0
-4984 95 0
-4984 165 0
4984 -95 -165 0
-4985 96 0
-4985 166 0
4985 -96 -166 0
-4986 97 0
-4986 167 0
4986 -97 -167 0
-4987 98 0
-4987 168 0
4987 -98 -168 0
-4974 4988 0
-4988 4974 0
-4988 4989 0
-4975 4989 0
-4989 4988 4975 0
-4988 -4975 4990 0
-4990 4988 0
-4990 4975 0
-4989 4991 0
-4976 4991 0
-4991 4989 4976 0
-4990 4992 0
-4989 -4976 4992 0
-4992 4990 4989 0
-4992 4990 4976 0
-4990 -4976 4993 0
-4993 4990 0
-4993 4976 0
-4991 4994 0
-4977 4994 0
-4994 4991 4977 0
-4992 4995 0
-4991 -4977 4995 0
-4995 4992 4991 0
-4995 4992 4977 0
-4993 4996 0
-4992 -4977 4996 0
-4996 4993 4992 0
-4996 4993 4977 0
-4994 4997 0
-4978 4997 0
-4997 4994 4978 0
-4995 4998 0
-4994 -4978 4998 0
-4998 4995 4994 0
-4998 4995 4978 0
-4996 4999 0
-4995 -4978 4999 0
-4999 4996 4995 0
-4999 4996 4978 0
-4997 5000 0
-4979 5000 0
-5000 4997 4979 0
-4998 5001 0
-4997 -4979 5001 0
-5001 4998 4997 0
-5001 4998 4979 0
-4999 5002 0
-4998 -4979 5002 0
-5002 4999 4998 0
-5002 4999 4979 0
-5000 5003 0
-4980 5003 0
-5003 5000 4980 0
-5001 5004 0
-5000 -4980 5004 0
-5004 5001 5000 0
-5004 5001 4980 0
-5002 5005 0
-5001 -4980 5005 0
-5005 5002 5001 0
-5005 5002 4980 0
-5003 5006 0
-4981 5006 0
-5006 5003 4981 0
-5004 5007 0
-5003 -4981 5007 0
-5007 5004 5003 0
-5007 5004 4981 0
-5005 5008 0
-5004 -4981 5008 0
-5008 5005 5004 0
-5008 5005 4981 0
-5006 5009 0
-4982 5009 0
-5009 5006 4982 0
-5007 5010 0
-5006 -4982 5010 0
-5010 5007 5006 0
-5010 5007 4982 0
-5008 5011 0
-5007 -4982 5011 0
-5011 5008 5007 0
-5011 5008 4982 0
-5009 5012 0
-4983 5012 0
-5012 5009 4983 0
-5010 5013 0
-5009 -4983 5013 0
-5013 5010 5009 0
-5013 5010 4983 0
-5011 5014 0
-5010 -4983 5014 0
-5014 5011 5010 0
-5014 5011 4983 0
-5012 5015 0
-4984 5015 0
-5015 5012 4984 0
-5013 5016 0
-5012 -4984 5016 0
-5016 5013 5012 0
-5016 5013 4984 0
-5014 5017 0
-5013 -4984 5017 0
-5017 5014 5013 0
-5017 5014 4984 0
-5015 5018 0
-4985 5018 0
-5018 5015 4985 0
-5016 5019 0
-5015 -4985 5019 0
-5019 5016 5015 0
-5019 5016 4985 0
-5017 5020 0
-5016 -4985 5020 0
-5020 5017 5016 0
-5020 5017 4985 0
-5018 5021 0
-4986 5021 0
-5021 5018 4986 0
-5019 5022 0
-5018 -4986 5022 0
-5022 5019 5018 0
-5022 5019 4986 0
-5020 5023 0
-5019 -4986 5023 0
-5023 5020 5019 0
-5023 5020 4986 0
-5021 5024 0
-4987 5024 0
-5024 5021 4987 0
-5022 5025 0
-5021 -4987 5025 0
-5025 5022 5021 0
-5025 5022 4987 0
-5023 5026 0
-5022 -4987 5026 0
-5026 5023 5022 0
-5026 5023 4987 0
5026 0
-5027 99 0
-5027 113 0
5027 -99 -113 0
-5028 100 0
-5028 114 0
5028 -100 -114 0
-5029 101 0
-5029 115 0
5029 -101 -115 0
-5030 102 0
-5030 116 0
5030 -102 -116 0
-5031 103 0
-5031 117 0
5031 -103 -117 0
-5032 104 0
-5032 118 0
5032 -104 -118 0
-5033 105 0
-5033 119 0
5033 -105 -119 0
-5034 106 0
-5034 120 0
5034 -106 -120 0
-5035 107 0
-5035 121 0
5035 -107 -121 0
-5036 108 0
-5036 122 0
5036 -108 -122 0
-5037 109 0
-5037 123 0
5037 -109 -123 0
-5038 110 0
-5038 124 0
5038 -110 -124 0
-5039 111 0
-5039 125 0
5039 -111 -125 0
-5040 112 0
-5040 126 0
5040 -112 -126 0
-5027 5041 0
-5041 5027 0
-5041 5042 0
-5028 5042 0
-5042 5041 5028 0
-5041 -5028 5043 0
-5043 5041 0
-5043 5028 0
-5042 5044 0
-5029 5044 0
-5044 5042 5029 0
-5043 5045 0
-5042 -5029 5045 0
-5045 5043 5042 0
-5045 5043 5029 0
-5043 -5029 5046 0
-5046 5043 0
-5046 5029 0
-5044 5047 0
-5030 5047 0
-5047 5044 5030 0
-5045 5048 0
-5044 -5030 5048 0
-5048 5045 5044 0
-5048 5045 5030 0
-5046 5049 0
-5045 -5030 5049 0
-5049 5046 5045 0
-5049 5046 5030 0
-5047 5050 0
-5031 5050 0
-5050 5047 5031 0
-5048 5051 0
-5047 -5031 5051 0
-5051 5048 5047 0
-5051 5048 5031 0
-5049 5052 0
-5048 -5031 5052 0
-5052 5049 5048 0
-5052 5049 5031 0
-5050 5053 0
-5032 5053 0
-5053 5050 5032 0
-5051 5054 0
-5050 -5032 5054 0
-5054 5051 5050 0
-5054 5051 5032 0
-5052 5055 0
-5051 -5032 5055 0
-5055 5052 5051 0
-5055 5052 5032 0
-5053 5056 0
-5033 5056 0
-5056 5053 5033 0
-5054 5057 0
-5053 -5033 5057 0
-5057 5054 5053 0
-5057 5054 5033 0
-5055 5058 0
-5054 -5033 5058 0
-5058 5055 5054 0
-5058 5055 5033 0
-5056 5059 0
-5034 5059 0
-5059 5056 5034 0
-5057 5060 0
-5056 -5034 5060 0
-5060 5057 5056 0
-5060 5057 5034 0
-5058 5061 0
-5057 -5034 5061 0
-5061 5058 5057 0
-5061 5058 5034 0
-5059 5062 0
-5035 5062 0
-5062 5059 5035 0
-5060 5063 0
-5059 -5035 5063 0
-5063 5060 5059 0
-5063 5060 5035 0
-5061 5064 0
-5060 -5035 5064 0
-5064 5061 5060 0
-5064 5061 5035 0
-5062 5065 0
-5036 5065 0
-5065 5062 5036 0
-5063 5066 0
-5062 -5036 5066 0
-5066 5063 5062 0
-5066 5063 5036 0
-5064 5067 0
-5063 -5036 5067 0
-5067 5064 5063 0
-5067 5064 5036 0
-5065 5068 0
-5037 5068 0
-5068 5065 5037 0
-5066 5069 0
-5065 -5037 5069 0
-5069 5066 5065 0
-5069 5066 5037 0
-5067 5070 0
-5066 -5037 5070 0
-5070 5067 5066 0
-5070 5067 5037 0
-5068 5071 0
-5038 5071 0
-5071 5068 5038 0
-5069 5072 0
-5068 -5038 5072 0
-5072 5069 5068 0
-5072 5069 5038 0
-5070 5073 0
-5069 -5038 5073 0
-5073 5070 5069 0
-5073 5070 5038 0
-5071 5074 0
-5039 5074 0
-5074 5071 5039 0
-5072 5075 0
-5071 -5039 5075 0
-5075 5072 5071 0
-5075 5072 5039 0
-5073 5076 0
-5072 -5039 5076 0
-5076 5073 5072 0
-5076 5073 5039 0
-5074 5077 0
-5040 5077 0
-5077 5074 5040 0
-5075 5078 0
-5074 -5040 5078 0
-5078 5075 5074 0
-5078 5075 5040 0
-5076 5079 0
-5075 -5040 5079 0
-5079 5076 5075 0
-5079 5076 5040 0
5079 0
-5080 99 0
-5080 127 0
5080 -99 -127 0
-5081 100 0
-5081 128 0
5081 -100 -128 0
-5082 101 0
-5082 129 0
5082 -101 -129 0
-5083 102 0
-5083 130 0
5083 -102 -130 0
-5084 103 0
-5084 131 0
5084 -103 -131 0
-5085 104 0
-5085 132 0
5085 -104 -132 0
-5086 105 0
-5086 133 0
5086 -105 -133 0
-5087 106 0
-5087 134 0
5087 -106 -134 0
-5088 107 0
-5088 135 0
5088 -107 -135 0
-5089 108 0
-5089 136 0
5089 -108 -136 0
-5090 109 0
-5090 137 0
5090 -109 -137 0
-5091 110 0
-5091 138 0
5091 -110 -138 0
-5092 111 0
-5092 139 0
5092 -111 -139 0
-5093 112 0
-5093 140 0
5093 -112 -140 0
-5080 5094 0
-5094 5080 0
-5094 5095 0
-5081 5095 0
-5095 5094 5081 0
-5094 -5081 5096 0
-5096 5094 0
-5096 5081 0
-5095 5097 0
-5082 5097 0
-5097 5095 5082 0
-5096 5098 0
-5095 -5082 5098 0
-5098 5096 5095 0
-5098 5096 5082 0
-5096 -5082 5099 0
-5099 5096 0
-5099 5082 0
-5097 5100 0
-5083 5100 0
-5100 5097 5083 0
-5098 5101 0
-5097 -5083 5101 0
-5101 5098 5097 0
-5101 5098 5083 0
-5099 5102 0
-5098 -5083 5102 0
-5102 5099 5098 0
-5102 5099 5083 0
-5100 5103 0
-5084 5103 0
-5103 5100 5084 0
-5101 5104 0
-5100 -5084 5104 0
-5104 5101 5100 0
-5104 5101 5084 0
-5102 5105 0
-5101 -5084 5105 0
-5105 5102 5101 0
-5105 5102 5084 0
-5103 5106 0
-5085 5106 0
-5106 5103 5085 0
-5104 5107 0
-5103 -5085 5107 0
-5107 5104 5103 0
-5107 5104 5085 0
-5105 5108 0
-5104 -5085 5108 0
-5108 5105 5104 0
-5108 5105 5085 0
-5106 5109 0
-5086 5109 0
-5109 5106 5086 0
-5107 5110 0
-5106 -5086 5110 0
-5110 5107 5106 0
-5110 5107 5086 0
-5108 5111 0
-5107 -5086 5111 0
-5111 5108 5107 0
-5111 5108 5086 0
-5109 5112 0
-5087 5112 0
-5112 5109 5087 0
-5110 5113 0
-5109 -5087 5113 0
-5113 5110 5109 0
-5113 5110 5087 0
-5111 5114 0
-5110 -5087 5114 0
-5114 5111 5110 0
-5114 5111 5087 0
-5112 5115 0
-5088 5115 0
-5115 5112 5088 0
-5113 5116 0
-5112 -5088 5116 0
-5116 5113 5112 0
-5116 5113 5088 0
-5114 5117 0
-5113 -5088 5117 0
-5117 5114 5113 0
-5117 5114 5088 0
-5115 5118 0
-5089 5118 0
-5118 5115 5089 0
-5116 5119 0
-5115 -5089 5119 0
-5119 5116 5115 0
-5119 5116 5089 0
-5117 5120 0
-5116 -5089 5120 0
-5120 5117 5116 0
-5120 5117 5089 0
-5118 5121 0
-5090 5121 0
-5121 5118 5090 0
-5119 5122 0
-5118 -5090 5122 0
-5122 5119 5118 0
-5122 5119 5090 0
-5120 5123 0
-5119 -5090 5123 0
-5123 5120 5119 0
-5123 5120 5090 0
-5121 5124 0
-5091 5124 0
-5124 5121 5091 0
-5122 5125 0
-5121 -5091 5125 0
-5125 5122 5121 0
-5125 5122 5091 0
-5123 5126 0
-5122 -5091 5126 0
-5126 5123 5122 0
-5126 5123 5091 0
-5124 5127 0
-5092 5127 0
-5127 5124 5092 0
-5125 5128 0
-5124 -5092 5128 0
-5128 5125 5124 0
-5128 5125 5092 0
-5126 5129 0
-5125 -5092 5129 0
-5129 5126 5125 0
-5129 5126 5092 0
-5127 5130 0
-5093 5130 0
-5130 5127 5093 0
-5128 5131 0
-5127 -5093 5131 0
-5131 5128 5127 0
-5131 5128 5093 0
-5129 5132 0
-5128 -5093 5132 0
-5132 5129 5128 0
-5132 5129 5093 0
5132 0
-5133 99 0
-5133 141 0
5133 -99 -141 0
-5134 100 0
-5134 142 0
5134 -100 -142 0
-5135 101 0
-5135 143 0
5135 -101 -143 0
-5136 102 0
-5136 144 0
5136 -102 -144 0
-5137 103 0
-5137 145 0
5137 -103 -145 0
-5138 104 0
-5138 146 0
5138 -104 -146 0
-5139 105 0
-5139 147 0
5139 -105 -147 0
-5140 106 0
-5140 148 0
5140 -106 -148 0
-5141 107 0
-5141 149 0
5141 -107 -149 0
-5142 108 0
-5142 150 0
5142 -108 -150 0
-5143 109 0
-5143 151 0
5143 -109 -151 0
-5144 110 0
-5144 152 0
5144 -110 -152 0
-5145 111 0
-5145 153 0
5145 -111 -153 0
-5146 112 0
-5146 154 0
5146 -112 -154 0
-5133 5147 0
-5147 5133 0
-5147 5148 0
-5134 5148 0
-5148 5147 5134 0
-5147 -5134 5149 0
-5149 5147 0
-5149 5134 0
-5148 5150 0
-5135 5150 0
-5150 5148 5135 0
-5149 5151 0
-5148 -5135 5151 0
-5151 5149 5148 0
-5151 5149 5135 0
-5149 -5135 5152 0
-5152 5149 0
-5152 5135 0
-5150 5153 0
-5136 5153 0
-5153 5150 5136 0
-5151 5154 0
-5150 -5136 5154 0
-5154 5151 5150 0
-5154 5151 5136 0
-5152 5155 0
-5151 -5136 5155 0
-5155 5152 5151 0
-5155 5152 5136 0
-5153 5156 0
-5137 5156 0
-5156 5153 5137 0
-5154 5157 0
-5153 -5137 5157 0
-5157 5154 5153 0
-5157 5154 5137 0
-5155 5158 0
-5154 -5137 5158 0
-5158 5155 5154 0
-5158 5155 5137 0
-5156 5159 0
-5138 5159 0
-5159 5156 5138 0
-5157 5160 0
-5156 -5138 5160 0
-5160 5157 5156 0
-5160 5157 5138 0
-5158 5161 0
-5157 -5138 5161 0
-5161 5158 5157 0
-5161 5158 5138 0
-5159 5162 0
-5139 5162 0
-5162 5159 5139 0
-5160 5163 0
-5159 -5139 5163 0
-5163 5160 5159 0
-5163 5160 5139 0
-5161 5164 0
-5160 -5139 5164 0
-5164 5161 5160 0
-5164 5161 5139 0
-5162 5165 0
-5140 5165 0
-5165 5162 5140 0
-5163 5166 0
-5162 -5140 5166 0
-5166 5163 5162 0
-5166 5163 5140 0
-5164 5167 0
-5163 -5140 5167 0
-5167 5164 5163 0
-5167 5164 5140 0
-5165 5168 0
-5141 5168 0
-5168 5165 5141 0
-5166 5169 0
-5165 -5141 5169 0
-5169 5166 5165 0
-5169 5166 5141 0
-5167 5170 0
-5166 -5141 5170 0
-5170 5167 5166 0
-5170 5167 5141 0
-5168 5171 0
-5142 5171 0
-5171 5168 5142 0
-5169 5172 0
-5168 -5142 5172 0
-5172 5169 5168 0
-5172 5169 5142 0
-5170 5173 0
-5169 -5142 5173 0
-5173 5170 5169 0
-5173 5170 5142 0
-5171 5174 0
-5143 5174 0
-5174 5171 5143 0
-5172 5175 0
-5171 -5143 5175 0
-5175 5172 5171 0
-5175 5172 5143 0
-5173 5176 0
-5172 -5143 5176 0
-5176 5173 5172 0
-5176 5173 5143 0
-5174 5177 0
-5144 5177 0
-5177 5174 5144 0
-5175 5178 0
-5174 -5144 5178 0
-5178 5175 5174 0
-5178 5175 5144 0
-5176 5179 0
-5175 -5144 5179 0
-5179 5176 5175 0
-5179 5176 5144 0
-5177 5180 0
-5145 5180 0
-5180 5177 5145 0
-5178 5181 0
-5177 -5145 5181 0
-5181 5178 5177 0
-5181 5178 5145 0
-5179 5182 0
-5178 -5145 5182 0
-5182 5179 5178 0
-5182 5179 5145 0
-5180 5183 0
-5146 5183 0
-5183 5180 5146 0
-5181 5184 0
-5180 -5146 5184 0
-5184 5181 5180 0
-5184 5181 5146 0
-5182 5185 0
-5181 -5146 5185 0
-5185 5182 5181 0
-5185 5182 5146 0
5185 0
-5186 99 0
-5186 155 0
5186 -99 -155 0
-5187 100 0
-5187 156 0
5187 -100 -156 0
-5188 101 0
-5188 157 0
5188 -101 -157 0
-5189 102 0
-5189 158 0
5189 -102 -158 0
-5190 103 0
-5190 159 0
5190 -103 -159 0
-5191 104 0
-5191 160 0
5191 -104 -160 0
-5192 105 0
-5192 161 0
5192 -105 -161 0
-5193 106 0
-5193 162 0
5193 -106 -162 0
-5194 107 0
-5194 163 0
5194 -107 -163 0
-5195 108 0
-5195 164 0
5195 -108 -164 0
-5196 109 0
-5196 165 0
5196 -109 -165 0
-5197 110 0
-5197 166 0
5197 -110 -166 0
-5198 111 0
-5198 167 0
5198 -111 -167 0
-5199 112 0
-5199 168 0
5199 -112 -168 0
-5186 5200 0
-5200 5186 0
-5200 5201 0
-5187 5201 0
-5201 5200 5187 0
-5200 -5187 5202 0
-5202 5200 0
-5202 5187 0
-5201 5203 0
-5188 5203 0
-5203 5201 5188 0
-5202 5204 0
-5201 -5188 5204 0
-5204 5202 5201 0
-5204 5202 5188 0
-5202 -5188 5205 0
-5205 5202 0
-5205 5188 0
-5203 5206 0
-5189 5206 0
-5206 5203 5189 0
-5204 5207 0
-5203 -5189 5207 0
-5207 5204 5203 0
-5207 5204 5189 0
-5205 5208 0
-5204 -5189 5208 0
-5208 5205 5204 0
-5208 5205 5189 0
-5206 5209 0
-5190 5209 0
-5209 5206 5190 0
-5207 5210 0
-5206 -5190 5210 0
-5210 5207 5206 0
-5210 5207 5190 0
-5208 5211 0
-5207 -5190 5211 0
-5211 5208 5207 0
-5211 5208 5190 0
-5209 5212 0
-5191 5212 0
-5212 5209 5191 0
-5210 5213 0
-5209 -5191 5213 0
-5213 5210 5209 0
-5213 5210 5191 0
-5211 5214 0
-5210 -5191 5214 0
-5214 5211 5210 0
-5214 5211 5191 0
-5212 5215 0
-5192 5215 0
-5215 5212 5192 0
-5213 5216 0
-5212 -5192 5216 0
-5216 5213 5212 0
-5216 5213 5192 0
-5214 5217 0
-5213 -5192 5217 0
-5217 5214 5213 0
-5217 5214 5192 0
-5215 5218 0
-5193 5218 0
-5218 5215 5193 0
-5216 5219 0
-5215 -5193 5219 0
-5219 5216 5215 0
-5219 5216 5193 0
-5217 5220 0
-5216 -5193 5220 0
-5220 5217 5216 0
-5220 5217 5193 0
-5218 5221 0
-5194 5221 0
-5221 5218 5194 0
-5219 5222 0
-5218 -5194 5222 0
-5222 5219 5218 0
-5222 5219 5194 0
-5220 5223 0
-5219 -5194 5223 0
-5223 5220 5219 0
-5223 5220 5194 0
-5221 5224 0
-5195 5224 0
-5224 5221 5195 0
-5222 5225 0
-5221 -5195 5225 0
-5225 5222 5221 0
-5225 5222 5195 0
-5223 5226 0
-5222 -5195 5226 0
-5226 5223 5222 0
-5226 5223 5195 0
-5224 5227 0
-5196 5227 0
-5227 5224 5196 0
-5225 5228 0
-5224 -5196 5228 0
-5228 5225 5224 0
-5228 5225 5196 0
-5226 5229 0
-5225 -5196 5229 0
-5229 5226 5225 0
-5229 5226 5196 0
-5227 5230 0
-5197 5230 0
-5230 5227 5197 0
-5228 5231 0
-5227 -5197 5231 0
-5231 5228 5227 0
-5231 5228 5197 0
-5229 5232 0
-5228 -5197 5232 0
-5232 5229 5228 0
-5232 5229 5197 0
-5230 5233 0
-5198 5233 0
-5233 5230 5198 0
-5231 5234 0
-5230 -5198 5234 0
-5234 5231 5230 0
-5234 5231 5198 0
-5232 5235 0
-5231 -5198 5235 0
-5235 5232 5231 0
-5235 5232 5198 0
-5233 5236 0
-5199 5236 0
-5236 5233 5199 0
-5234 5237 0
-5233 -5199 5237 0
-5237 5234 5233 0
-5237 5234 5199 0
-5235 5238 0
-5234 -5199 5238 0
-5238 5235 5234 0
-5238 5235 5199 0
5238 0
-5239 113 0
-5239 127 0
5239 -113 -127 0
-5240 114 0
-5240 128 0
5240 -114 -128 0
-5241 115 0
-5241 129 0
5241 -115 -129 0
-5242 116 0
-5242 130 0
5242 -116 -130 0
-5243 117 0
-5243 131 0
5243 -117 -131 0
-5244 118 0
-5244 132 0
5244 -118 -132 0
-5245 119 0
-5245 133 0
5245 -119 -133 0
-5246 120 0
-5246 134 0
5246 -120 -134 0
-5247 121 0
-5247 135 0
5247 -121 -135 0
-5248 122 0
-5248 136 0
5248 -122 -136 0
-5249 123 0
-5249 137 0
5249 -123 -137 0
-5250 124 0
-5250 138 0
5250 -124 -138 0
-5251 125 0
-5251 139 0
5251 -125 -139 0
-5252 126 0
-5252 140 0
5252 -126 -140 0
-5239 5253 0
-5253 5239 0
-5253 5254 0
-5240 5254 0
-5254 5253 5240 0
-5253 -5240 5255 0
-5255 5253 0
-5255 5240 0
-5254 5256 0
-5241 5256 0
-5256 5254 5241 0
-5255 5257 0
-5254 -5241 5257 0
-5257 5255 5254 0
-5257 5255 5241 0
-5255 -5241 5258 0
-5258 5255 0
-5258 5241 0
-5256 5259 0
-5242 5259 0
-5259 5256 5242 0
-5257 5260 0
-5256 -5242 5260 0
-5260 5257 5256 0
-5260 5257 5242 0
-5258 5261 0
-5257 -5242 5261 0
-5261 5258 5257 0
-5261 5258 5242 0
-5259 5262 0
-5243 5262 0
-5262 5259 5243 0
-5260 5263 0
-5259 -5243 5263 0
-5263 5260 5259 0
-5263 5260 5243 0
-5261 5264 0
-5260 -5243 5264 0
-5264 5261 5260 0
-5264 5261 5243 0
-5262 5265 0
-5244 5265 0
-5265 5262 5244 0
-5263 5266 0
-5262 -5244 5266 0
-5266 5263 5262 0
-5266 5263 5244 0
-5264 5267 0
-5263 -5244 5267 0
-5267 5264 5263 0
-5267 5264 5244 0
-5265 5268 0
-5245 5268 0
-5268 5265 5245 0
-5266 5269 0
-5265 -5245 5269 0
-5269 5266 5265 0
-5269 5266 5245 0
-5267 5270 0
-5266 -5245 5270 0
-5270 5267 5266 0
-5270 5267 5245 0
-5268 5271 0
-5246 5271 0
-5271 5268 5246 0
-5269 5272 0
-5268 -5246 5272 0
-5272 5269 5268 0
-5272 5269 5246 0
-5270 5273 0
-5269 -5246 5273 0
-5273 5270 5269 0
-5273 5270 5246 0
-5271 5274 0
-5247 5274 0
-5274 5271 5247 0
-5272 5275 0
-5271 -5247 5275 0
-5275 5272 5271 0
-5275 5272 5247 0
-5273 5276 0
-5272 -5247 5276 0
-5276 5273 5272 0
-5276 5273 5247 0
-5274 5277 0
-5248 5277 0
-5277 5274 5248 0
-5275 5278 0
-5274 -5248 5278 0
-5278 5275 5274 0
-5278 5275 5248 0
-5276 5279 0
-5275 -5248 5279 0
-5279 5276 5275 0
-5279 5276 5248 0
-5277 5280 0
-5249 5280 0
-5280 5277 5249 0
-5278 5281 0
-5277 -5249 5281 0
-5281 5278 5277 0
-5281 5278 5249 0
-5279 5282 0
-5278 -5249 5282 0
-5282 5279 5278 0
-5282 5279 5249 0
-5280 5283 0
-5250 5283 0
-5283 5280 5250 0
-5281 5284 0
-5280 -5250 5284 0
-5284 5281 5280 0
-5284 5281 5250 0
-5282 5285 0
-5281 -5250 5285 0
-5285 5282 5281 0
-5285 5282 5250 0
-5283 5286 0
-5251 5286 0
-5286 5283 5251 0
-5284 5287 0
-5283 -5251 5287 0
-5287 5284 5283 0
-5287 5284 5251 0
-5285 5288 0
-5284 -5251 5288 0
-5288 5285 5284 0
-5288 5285 5251 0
-5286 5289 0
-5252 5289 0
-5289 5286 5252 0
-5287 5290 0
-5286 -5252 5290 0
-5290 5287 5286 0
-5290 5287 5252 0
-5288 5291 0
-5287 -5252 5291 0
-5291 5288 5287 0
-5291 5288 5252 0
5291 0
-5292 113 0
-5292 141 0
5292 -113 -141 0
-5293 114 0
-5293 142 0
5293 -114 -142 0
-5294 115 0
-5294 143 0
5294 -115 -143 0
-5295 116 0
-5295 144 0
5295 -116 -144 0
-5296 117 0
-5296 145 0
5296 -117 -145 0
-5297 118 0
-5297 146 0
5297 -118 -146 0
-5298 119 0
-5298 147 0
5298 -119 -147 0
-5299 120 0
-5299 148 0
5299 -120 -148 0
-5300 121 0
-5300 149 0
5300 -121 -149 0
-5301 122 0
-5301 150 0
5301 -122 -150 0
-5302 123 0
-5302 151 0
5302 -123 -151 0
-5303 124 0
-5303 152 0
5303 -124 -152 0
-5304 125 0
-5304 153 0
5304 -125 -153 0
-5305 126 0
-5305 154 0
5305 -126 -154 0
-5292 5306 0
-5306 5292 0
-5306 5307 0
-5293 5307 0
-5307 5306 5293 0
-5306 -5293 5308 0
-5308 5306 0
-5308 5293 0
-5307 5309 0
-5294 5309 0
-5309 5307 5294 0
-5308 5310 0
-5307 -5294 5310 0
-5310 5308 5307 0
-5310 5308 5294 0
-5308 -5294 5311 0
-5311 5308 0
-5311 5294 0
-5309 5312 0
-5295 5312 0
-5312 5309 5295 0
-5310 5313 0
-5309 -5295 5313 0
-5313 5310 5309 0
-5313 5310 5295 0
-5311 5314 0
-5310 -5295 5314 0
-5314 5311 5310 0
-5314 5311 5295 0
-5312 5315 0
-5296 5315 0
-5315 5312 5296 0
-5313 5316 0
-5312 -5296 5316 0
-5316 5313 5312 0
-5316 5313 5296 0
-5314 5317 0
-5313 -5296 5317 0
-5317 5314 5313 0
-5317 5314 5296 0
-5315 5318 0
-5297 5318 0
-5318 5315 5297 0
-5316 5319 0
-5315 -5297 5319 0
-5319 5316 5315 0
-5319 5316 5297 0
-5317 5320 0
-5316 -5297 5320 0
-5320 5317 5316 0
-5320 5317 5297 0
-5318 5321 0
-5298 5321 0
-5321 5318 5298 0
-5319 5322 0
-5318 -5298 5322 0
-5322 5319 5318 0
-5322 5319 5298 0
-5320 5323 0
-5319 -5298 5323 0
-5323 5320 5319 0
-5323 5320 5298 0
-5321 5324 0
-5299 5324 0
-5324 5321 5299 0
-5322 5325 0
-5321 -5299 5325 0
-5325 5322 5321 0
-5325 5322 5299 0
-5323 5326 0
-5322 -5299 5326 0
-5326 5323 5322 0
-5326 5323 5299 0
-5324 5327 0
-5300 5327 0
-5327 5324 5300 0
-5325 5328 0
-5324 -5300 5328 0
-5328 5325 5324 0
-5328 5325 5300 0
-5326 5329 0
-5325 -5300 5329 0
-5329 5326 5325 0
-5329 5326 5300 0
-5327 5330 0
-5301 5330 0
-5330 5327 5301 0
-5328 5331 0
-5327 -5301 5331 0
-5331 5328 5327 0
-5331 5328 5301 0
-5329 5332 0
-5328 -5301 5332 0
-5332 5329 5328 0
-5332 5329 5301 0
-5330 5333 0
-5302 5333 0
-5333 5330 5302 0
-5331 5334 0
-5330 -5302 5334 0
-5334 5331 5330 0
-5334 5331 5302 0
-5332 5335 0
-5331 -5302 5335 0
-5335 5332 5331 0
-5335 5332 5302 0
-5333 5336 0
-5303 5336 0
-5336 5333 5303 0
-5334 5337 0
-5333 -5303 5337 0
-5337 5334 5333 0
-5337 5334 5303 0
-5335 5338 0
-5334 -5303 5338 0
-5338 5335 5334 0
-5338 5335 5303 0
-5336 5339 0
-5304 5339 0
-5339 5336 5304 0
-5337 5340 0
-5336 -5304 5340 0
-5340 5337 5336 0
-5340 5337 5304 0
-5338 5341 0
-5337 -5304 5341 0
-5341 5338 5337 0
-5341 5338 5304 0
-5339 5342 0
-5305 5342 0
-5342 5339 5305 0
-5340 5343 0
-5339 -5305 5343 0
-5343 5340 5339 0
-5343 5340 5305 0
-5341 5344 0
-5340 -5305 5344 0
-5344 5341 5340 0
-5344 5341 5305 0
5344 0
-5345 113 0
-5345 155 0
5345 -113 -155 0
-5346 114 0
-5346 156 0
5346 -114 -156 0
-5347 115 0
-5347 157 0
5347 -115 -157 0
-5348 116 0
-5348 158 0
5348 -116 -158 0
-5349 117 0
-5349 159 0
5349 -117 -159 0
-5350 118 0
-5350 160 0
5350 -118 -160 0
-5351 119 0
-5351 161 0
5351 -119 -161 0
-5352 120 0
-5352 162 0
5352 -120 -162 0
-5353 121 0
-5353 163 0
5353 -121 -163 0
-5354 122 0
-5354 164 0
5354 -122 -164 0
-5355 123 0
-5355 165 0
5355 -123 -165 0
-5356 124 0
-5356 166 0
5356 -124 -166 0
-5357 125 0
-5357 167 0
5357 -125 -167 0
-5358 126 0
-5358 168 0
5358 -126 -168 0
-5345 5359 0
-5359 5345 0
-5359 5360 0
-5346 5360 0
-5360 5359 5346 0
-5359 -5346 5361 0
-5361 5359 0
-5361 5346 0
-5360 5362 0
-5347 5362 0
-5362 5360 5347 0
-5361 5363 0
-5360 -5347 5363 0
-5363 5361 5360 0
-5363 5361 5347 0
-5361 -5347 5364 0
-5364 5361 0
-5364 5347 0
-5362 5365 0
-5348 5365 0
-5365 5362 5348 0
-5363 5366 0
-5362 -5348 5366 0
-5366 5363 5362 0
-5366 5363 5348 0
-5364 5367 0
-5363 -5348 5367 0
-5367 5364 5363 0
-5367 5364 5348 0
-5365 5368 0
-5349 5368 0
-5368 5365 5349 0
-5366 5369 0
-5365 -5349 5369 0
-5369 5366 5365 0
-5369 5366 5349 0
-5367 5370 0
-5366 -5349 5370 0
-5370 5367 5366 0
-5370 5367 5349 0
-5368 5371 0
-5350 5371 0
-5371 5368 5350 0
-5369 5372 0
-5368 -5350 5372 0
-5372 5369 5368 0
-5372 5369 5350 0
-5370 5373 0
-5369 -5350 5373 0
-5373 5370 5369 0
-5373 5370 5350 0
-5371 5374 0
-5351 5374 0
-5374 5371 5351 0
-5372 5375 0
-5371 -5351 5375 0
-5375 5372 5371 0
-5375 5372 5351 0
-5373 5376 0
-5372 -5351 5376 0
-5376 5373 5372 0
-5376 5373 5351 0
-5374 5377 0
-5352 5377 0
-5377 5374 5352 0
-5375 5378 0
-5374 -5352 5378 0
-5378 5375 5374 0
-5378 5375 5352 0
-5376 5379 0
-5375 -5352 5379 0
-5379 5376 5375 0
-5379 5376 5352 0
-5377 5380 0
-5353 5380 0
-5380 5377 5353 0
-5378 5381 0
-5377 -5353 5381 0
-5381 5378 5377 0
-5381 5378 5353 0
-5379 5382 0
-5378 -5353 5382 0
-5382 5379 5378 0
-5382 5379 5353 0
-5380 5383 0
-5354 5383 0
-5383 5380 5354 0
-5381 5384 0
-5380 -5354 5384 0
-5384 5381 5380 0
-5384 5381 5354 0
-5382 5385 0
-5381 -5354 5385 0
-5385 5382 5381 0
-5385 5382 5354 0
-5383 5386 0
-5355 5386 0
-5386 5383 5355 0
-5384 5387 0
-5383 -5355 5387 0
-5387 5384 5383 0
-5387 5384 5355 0
-5385 5388 0
-5384 -5355 5388 0
-5388 5385 5384 0
-5388 5385 5355 0
-5386 5389 0
-5356 5389 0
-5389 5386 5356 0
-5387 5390 0
-5386 -5356 5390 0
-5390 5387 5386 0
-5390 5387 5356 0
-5388 5391 0
-5387 -5356 5391 0
-5391 5388 5387 0
-5391 5388 5356 0
-5389 5392 0
-5357 5392 0
-5392 5389 5357 0
-5390 5393 0
-5389 -5357 5393 0
-5393 5390 5389 0
-5393 5390 5357 0
-5391 5394 0
-5390 -5357 5394 0
-5394 5391 5390 0
-5394 5391 5357 0
-5392 5395 0
-5358 5395 0
-5395 5392 5358 0
-5393 5396 0
-5392 -5358 5396 0
-5396 5393 5392 0
-5396 5393 5358 0
-5394 5397 0
-5393 -5358 5397 0
-5397 5394 5393 0
-5397 5394 5358 0
5397 0
-5398 127 0
-5398 141 0
5398 -127 -141 0
-5399 128 0
-5399 142 0
5399 -128 -142 0
-5400 129 0
-5400 143 0
5400 -129 -143 0
-5401 130 0
-5401 144 0
5401 -130 -144 0
-5402 131 0
-5402 145 0
5402 -131 -145 0
-5403 132 0
-5403 146 0
5403 -132 -146 0
-5404 133 0
-5404 147 0
5404 -133 -147 0
-5405 134 0
-5405 148 0
5405 -134 -148 0
-5406 135 0
-5406 149 0
5406 -135 -149 0
-5407 136 0
-5407 150 0
5407 -136 -150 0
-5408 137 0
-5408 151 0
5408 -137 -151 0
-5409 138 0
-5409 152 0
5409 -138 -152 0
-5410 139 0
-5410 153 0
5410 -139 -153 0
-5411 140 0
-5411 154 0
5411 -140 -154 0
-5398 5412 0
-5412 5398 0
-5412 5413 0
-5399 5413 0
-5413 5412 5399 0
-5412 -5399 5414 0
-5414 5412 0
-5414 5399 0
-5413 5415 0
-5400 5415 0
-5415 5413 5400 0
-5414 5416 0
-5413 -5400 5416 0
-5416 5414 5413 0
-5416 5414 5400 0
-5414 -5400 5417 0
-5417 5414 0
-5417 5400 0
-5415 5418 0
-5401 5418 0
-5418 5415 5401 0
-5416 5419 0
-5415 -5401 5419 0
-5419 5416 5415 0
-5419 5416 5401 0
-5417 5420 0
-5416 -5401 5420 0
-5420 5417 5416 0
-5420 5417 5401 0
-5418 5421 0
-5402 5421 0
-5421 5418 5402 0
-5419 5422 0
-5418 -5402 5422 0
-5422 5419 5418 0
-5422 5419 5402 0
-5420 5423 0
-5419 -5402 5423 0
-5423 5420 5419 0
-5423 5420 5402 0
-5421 5424 0
-5403 5424 0
-5424 5421 5403 0
-5422 5425 0
-5421 -5403 5425 0
-5425 5422 5421 0
-5425 5422 5403 0
-5423 5426 0
-5422 -5403 5426 0
-5426 5423 5422 0
-5426 5423 5403 0
-5424 5427 0
-5404 5427 0
-5427 5424 5404 0
-5425 5428 0
-5424 -5404 5428 0
-5428 5425 5424 0
-5428 5425 5404 0
-5426 5429 0
-5425 -5404 5429 0
-5429 5426 5425 0
-5429 5426 5404 0
-5427 5430 0
-5405 5430 0
-5430 5427 5405 0
-5428 5431 0
-5427 -5405 5431 0
-5431 5428 5427 0
-5431 5428 5405 0
-5429 5432 0
-5428 -5405 5432 0
-5432 5429 5428 0
-5432 5429 5405 0
-5430 5433 0
-5406 5433 0
-5433 5430 5406 0
-5431 5434 0
-5430 -5406 5434 0
-5434 5431 5430 0
-5434 5431 5406 0
-5432 5435 0
-5431 -5406 5435 0
-5435 5432 5431 0
-5435 5432 5406 0
-5433 5436 0
-5407 5436 0
-5436 5433 5407 0
-5434 5437 0
-5433 -5407 5437 0
-5437 5434 5433 0
-5437 5434 5407 0
-5435 5438 0
-5434 -5407 5438 0
-5438 5435 5434 0
-5438 5435 5407 0
-5436 5439 0
-5408 5439 0
-5439 5436 5408 0
-5437 5440 0
-5436 -5408 5440 0
-5440 5437 5436 0
-5440 5437 5408 0
-5438 5441 0
-5437 -5408 5441 0
-5441 5438 5437 0
-5441 5438 5408 0
-5439 5442 0
-5409 5442 0
-5442 5439 5409 0
-5440 5443 0
-5439 -5409 5443 0
-5443 5440 5439 0
-5443 5440 5409 0
-5441 5444 0
-5440 -5409 5444 0
-5444 5441 5440 0
-5444 5441 5409 0
-5442 5445 0
-5410 5445 0
-5445 5442 5410 0
-5443 5446 0
-5442 -5410 5446 0
-5446 5443 5442 0
-5446 5443 5410 0
-5444 5447 0
-5443 -5410 5447 0
-5447 5444 5443 0
-5447 5444 5410 0
-5445 5448 0
-5411 5448 0
-5448 5445 5411 0
-5446 5449 0
-5445 -5411 5449 0
-5449 5446 5445 0
-5449 5446 5411 0
-5447 5450 0
-5446 -5411 5450 0
-5450 5447 5446 0
-5450 5447 5411 0
5450 0
-5451 127 0
-5451 155 0
5451 -127 -155 0
-5452 128 0
-5452 156 0
5452 -128 -156 0
-5453 129 0
-5453 157 0
5453 -129 -157 0
-5454 130 0
-5454 158 0
5454 -130 -158 0
-5455 131 0
-5455 159 0
5455 -131 -159 0
-5456 132 0
-5456 160 0
5456 -132 -160 0
-5457 133 0
-5457 161 0
5457 -133 -161 0
-5458 134 0
-5458 162 0
5458 -134 -162 0
-5459 135 0
-5459 163 0
5459 -135 -163 0
-5460 136 0
-5460 164 0
5460 -136 -164 0
-5461 137 0
-5461 165 0
5461 -137 -165 0
-5462 138 0
-5462 166 0
5462 -138 -166 0
-5463 139 0
-5463 167 0
5463 -139 -167 0
-5464 140 0
-5464 168 0
5464 -140 -168 0
-5451 5465 0
-5465 5451 0
-5465 5466 0
-5452 5466 0
-5466 5465 5452 0
-5465 -5452 5467 0
-5467 5465 0
-5467 5452 0
-5466 5468 0
-5453 5468 0
-5468 5466 5453 0
-5467 5469 0
-5466 -5453 5469 0
-5469 5467 5466 0
-5469 5467 5453 0
-5467 -5453 5470 0
-5470 5467 0
-5470 5453 0
-5468 5471 0
-5454 5471 0
-5471 5468 5454 0
-5469 5472 0
-5468 -5454 5472 0
-5472 5469 5468 0
-5472 5469 5454 0
-5470 5473 0
-5469 -5454 5473 0
-5473 5470 5469 0
-5473 5470 5454 0
-5471 5474 0
-5455 5474 0
-5474 5471 5455 0
-5472 5475 0
-5471 -5455 5475 0
-5475 5472 5471 0
-5475 5472 5455 0
-5473 5476 0
-5472 -5455 5476 0
-5476 5473 5472 0
-5476 5473 5455 0
-5474 5477 0
-5456 5477 0
-5477 5474 5456 0
-5475 5478 0
-5474 -5456 5478 0
-5478 5475 5474 0
-5478 5475 5456 0
-5476 5479 0
-5475 -5456 5479 0
-5479 5476 5475 0
-5479 5476 5456 0
-5477 5480 0
-5457 5480 0
-5480 5477 5457 0
-5478 5481 0
-5477 -5457 5481 0
-5481 5478 5477 0
-5481 5478 5457 0
-5479 5482 0
-5478 -5457 5482 0
-5482 5479 5478 0
-5482 5479 5457 0
-5480 5483 0
-5458 5483 0
-5483 5480 5458 0
-5481 5484 0
-5480 -5458 5484 0
-5484 5481 5480 0
-5484 5481 5458 0
-5482 5485 0
-5481 -5458 5485 0
-5485 5482 5481 0
-5485 5482 5458 0
-5483 5486 0
-5459 5486 0
-5486 5483 5459 0
-5484 5487 0
-5483 -5459 5487 0
-5487 5484 5483 0
-5487 5484 5459 0
-5485 5488 0
-5484 -5459 5488 0
-5488 5485 5484 0
-5488 5485 5459 0
-5486 5489 0
-5460 5489 0
-5489 5486 5460 0
-5487 5490 0
-5486 -5460 5490 0
-5490 5487 5486 0
-5490 5487 5460 0
-5488 5491 0
-5487 -5460 5491 0
-5491 5488 5487 0
-5491 5488 5460 0
-5489 5492 0
-5461 5492 0
-5492 5489 5461 0
-5490 5493 0
-5489 -5461 5493 0
-5493 5490 5489 0
-5493 5490 5461 0
-5491 5494 0
-5490 -5461 5494 0
-5494 5491 5490 0
-5494 5491 5461 0
-5492 5495 0
-5462 5495 0
-5495 5492 5462 0
-5493 5496 0
-5492 -5462 5496 0
-5496 5493 5492 0
-5496 5493 5462 0
-5494 5497 0
-5493 -5462 5497 0
-5497 5494 5493 0
-5497 5494 5462 0
-5495 5498 0
-5463 5498 0
-5498 5495 5463 0
-5496 5499 0
-5495 -5463 5499 0
-5499 5496 5495 0
-5499 5496 5463 0
-5497 5500 0
-5496 -5463 5500 0
-5500 5497 5496 0
-5500 5497 5463 0
-5498 5501 0
-5464 5501 0
-5501 5498 5464 0
-5499 5502 0
-5498 -5464 5502 0
-5502 5499 5498 0
-5502 5499 5464 0
-5500 5503 0
-5499 -5464 5503 0
-5503 5500 5499 0
-5503 5500 5464 0
5503 0
-5504 141 0
-5504 155 0
5504 -141 -155 0
-5505 142 0
-5505 156 0
5505 -142 -156 0
-5506 143 0
-5506 157 0
5506 -143 -157 0
-5507 144 0
-5507 158 0
5507 -144 -158 0
-5508 145 0
-5508 159 0
5508 -145 -159 0
-5509 146 0
-5509 160 0
5509 -146 -160 0
-5510 147 0
-5510 161 0
5510 -147 -161 0
-5511 148 0
-5511 162 0
5511 -148 -162 0
-5512 149 0
-5512 163 0
5512 -149 -163 0
-5513 150 0
-5513 164 0
5513 -150 -164 0
-5514 151 0
-5514 165 0
5514 -151 -165 0
-5515 152 0
-5515 166 0
5515 -152 -166 0
-5516 153 0
-5516 167 0
5516 -153 -167 0
-5517 154 0
-5517 168 0
5517 -154 -168 0
-5504 5518 0
-5518 5504 0
-5518 5519 0
-5505 5519 0
-5519 5518 5505 0
-5518 -5505 5520 0
-5520 5518 0
-5520 5505 0
-5519 5521 0
-5506 5521 0
-5521 5519 5506 0
-5520 5522 0
-5519 -5506 5522 0
-5522 5520 5519 0
-5522 5520 5506 0
-5520 -5506 5523 0
-5523 5520 0
-5523 5506 0
-5521 5524 0
-5507 5524 0
-5524 5521 5507 0
-5522 5525 0
-5521 -5507 5525 0
-5525 5522 5521 0
-5525 5522 5507 0
-5523 5526 0
-5522 -5507 5526 0
-5526 5523 5522 0
-5526 5523 5507 0
-5524 5527 0
-5508 5527 0
-5527 5524 5508 0
-5525 5528 0
-5524 -5508 5528 0
-5528 5525 5524 0
-5528 5525 5508 0
-5526 5529 0
-5525 -5508 5529 0
-5529 5526 5525 0
-5529 5526 5508 0
-5527 5530 0
-5509 5530 0
-5530 5527 5509 0
-5528 5531 0
-5527 -5509 5531 0
-5531 5528 5527 0
-5531 5528 5509 0
-5529 5532 0
-5528 -5509 5532 0
-5532 5529 5528 0
-5532 5529 5509 0
-5530 5533 0
-5510 5533 0
-5533 5530 5510 0
-5531 5534 0
-5530 -5510 5534 0
-5534 5531 5530 0
-5534 5531 5510 0
-5532 5535 0
-5531 -5510 5535 0
-5535 5532 5531 0
-5535 5532 5510 0
-5533 5536 0
-5511 5536 0
-5536 5533 5511 0
-5534 5537 0
-5533 -5511 5537 0
-5537 5534 5533 0
-5537 5534 5511 0
-5535 5538 0
-5534 -5511 5538 0
-5538 5535 5534 0
-5538 5535 5511 0
-5536 5539 0
-5512 5539 0
-5539 5536 5512 0
-5537 5540 0
-5536 -5512 5540 0
-5540 5537 5536 0
-5540 5537 5512 0
-5538 5541 0
-5537 -5512 5541 0
-5541 5538 5537 0
-5541 5538 5512 0
-5539 5542 0
-5513 5542 0
-5542 5539 5513 0
-5540 5543 0
-5539 -5513 5543 0
-5543 5540 5539 0
-5543 5540 5513 0
-5541 5544 0
-5540 -5513 5544 0
-5544 5541 5540 0
-5544 5541 5513 0
-5542 5545 0
-5514 5545 0
-5545 5542 5514 0
-5543 5546 0
-5542 -5514 5546 0
-5546 5543 5542 0
-5546 5543 5514 0
-5544 5547 0
-5543 -5514 5547 0
-5547 5544 5543 0
-5547 5544 5514 0
-5545 5548 0
-5515 5548 0
-5548 5545 5515 0
-5546 5549 0
-5545 -5515 5549 0
-5549 5546 5545 0
-5549 5546 5515 0
-5547 5550 0
-5546 -5515 5550 0
-5550 5547 5546 0
-5550 5547 5515 0
-5548 5551 0
-5516 5551 0
-5551 5548 5516 0
-5549 5552 0
-5548 -5516 5552 0
-5552 5549 5548 0
-5552 5549 5516 0
-5550 5553 0
-5549 -5516 5553 0
-5553 5550 5549 0
-5553 5550 5516 0
-5551 5554 0
-5517 5554 0
-5554 5551 5517 0
-5552 5555 0
-5551 -5517 5555 0
-5555 5552 5551 0
-5555 5552 5517 0
-5553 5556 0
-5552 -5517 5556 0
-5556 5553 5552 0
-5556 5553 5517 0
5556 0
-5557 2059 0
-5557 29 0
-5558 2060 0
-5558 30 0
-5559 2061 0
-5559 31 0
-5560 2062 0
-5560 32 0
-5561 2063 0
-5561 33 0
-5562 2064 0
-5562 34 0
-5563 2065 0
-5563 35 0
-5564 2066 0
-5564 36 0
-5565 2067 0
-5565 37 0
-5566 2068 0
-5566 38 0
-5567 2069 0
-5567 39 0
-5568 2070 0
-5568 40 0
-5569 2071 0
-5569 41 0
-5570 2072 0
-5570 42 0
5557 5558 5559 5560 5561 5562 5563 5564 5565 5566 5567 5568 5569 5570 0
-5571 2059 0
-5571 43 0
-5572 2060 0
-5572 44 0
-5573 2061 0
-5573 45 0
-5574 2062 0
-5574 46 0
-5575 2063 0
-5575 47 0
-5576 2064 0
-5576 48 0
-5577 2065 0
-5577 49 0
-5578 2066 0
-5578 50 0
-5579 2067 0
-5579 51 0
-5580 2068 0
-5580 52 0
-5581 2069 0
-5581 53 0
-5582 2070 0
-5582 54 0
-5583 2071 0
-5583 55 0
-5584 2072 0
-5584 56 0
5571 5572 5573 5574 5575 5576 5577 5578 5579 5580 5581 5582 5583 5584 0
-5585 2059 0
-5585 57 0
-5586 2060 0
-5586 58 0
-5587 2061 0
-5587 59 0
-5588 2062 0
-5588 60 0
-5589 2063 0
-5589 61 0
-5590 2064 0
-5590 62 0
-5591 2065 0
-5591 63 0
-5592 2066 0
-5592 64 0
-5593 2067 0
-5593 65 0
-5594 2068 0
-5594 66 0
-5595 2069 0
-5595 67 0
-5596 2070 0
-5596 68 0
-5597 2071 0
-5597 69 0
-5598 2072 0
-5598 70 0
5585 5586 5587 5588 5589 5590 5591 5592 5593 5594 5595 5596 5597 5598 0
-5599 2059 0
-5599 71 0
-5600 2060 0
-5600 72 0
-5601 2061 0
-5601 73 0
-5602 2062 0
-5602 74 0
-5603 2063 0
-5603 75 0
-5604 2064 0
-5604 76 0
-5605 2065 0
-5605 77 0
-5606 2066 0
-5606 78 0
-5607 2067 0
-5607 79 0
-5608 2068 0
-5608 80 0
-5609 2069 0
-5609 81 0
-5610 2070 0
-5610 82 0
-5611 2071 0
-5611 83 0
-5612 2072 0
-5612 84 0
5599 5600 5601 5602 5603 5604 5605 5606 5607 5608 5609 5610 5611 5612 0
-5613 2059 0
-5613 85 0
-5614 2060 0
-5614 86 0
-5615 2061 0
-5615 87 0
-5616 2062 0
-5616 88 0
-5617 2063 0
-5617 89 0
-5618 2064 0
-5618 90 0
-5619 2065 0
-5619 91 0
-5620 2066 0
-5620 92 0
-5621 2067 0
-5621 93 0
-5622 2068 0
-5622 94 0
-5623 2069 0
-5623 95 0
-5624 2070 0
-5624 96 0
-5625 2071 0
-5625 97 0
-5626 2072 0
-5626 98 0
5613 5614 5615 5616 5617 5618 5619 5620 5621 5622 5623 5624 5625 5626 0
-5627 2059 0
-5627 99 0
-5628 2060 0
-5628 100 0
-5629 2061 0
-5629 101 0
-5630 2062 0
-5630 102 0
-5631 2063 0
-5631 103 0
-5632 2064 0
-5632 104 0
-5633 2065 0
-5633 105 0
-5634 2066 0
-5634 106 0
-5635 2067 0
-5635 107 0
-5636 2068 0
-5636 108 0
-5637 2069 0
-5637 109 0
-5638 2070 0
-5638 110 0
-5639 2071 0
-5639 111 0
-5640 2072 0
-5640 112 0
5627 5628 5629 5630 5631 5632 5633 5634 5635 5636 5637 5638 5639 5640 0
-5641 2059 0
-5641 113 0
-5642 2060 0
-5642 114 0
-5643 2061 0
-5643 115 0
-5644 2062 0
-5644 116 0
-5645 2063 0
-5645 117 0
-5646 2064 0
-5646 118 0
-5647 2065 0
-5647 119 0
-5648 2066 0
-5648 120 0
-5649 2067 0
-5649 121 0
-5650 2068 0
-5650 122 0
-5651 2069 0
-5651 123 0
-5652 2070 0
-5652 124 0
-5653 2071 0
-5653 125 0
-5654 2072 0
-5654 126 0
5641 5642 5643 5644 5645 5646 5647 5648 5649 5650 5651 5652 5653 5654 0
-5655 2059 0
-5655 127 0
-5656 2060 0
-5656 128 0
-5657 2061 0
-5657 129 0
-5658 2062 0
-5658 130 0
-5659 2063 0
-5659 131 0
-5660 2064 0
-5660 132 0
-5661 2065 0
-5661 133 0
-5662 2066 0
-5662 134 0
-5663 2067 0
-5663 135 0
-5664 2068 0
-5664 136 0
-5665 2069 0
-5665 137 0
-5666 2070 0
-5666 138 0
-5667 2071 0
-5667 139 0
-5668 2072 0
-5668 140 0
5655 5656 5657 5658 5659 5660 5661 5662 5663 5664 5665 5666 5667 5668 0
-5669 2059 0
-5669 141 0
-5670 2060 0
-5670 142 0
-5671 2061 0
-5671 143 0
-5672 2062 0
-5672 144 0
-5673 2063 0
-5673 145 0
-5674 2064 0
-5674 146 0
-5675 2065 0
-5675 147 0
-5676 2066 0
-5676 148 0
-5677 2067 0
-5677 149 0
-5678 2068 0
-5678 150 0
-5679 2069 0
-5679 151 0
-5680 2070 0
-5680 152 0
-5681 2071 0
-5681 153 0
-5682 2072 0
-5682 154 0
5669 5670 5671 5672 5673 5674 5675 5676 5677 5678 5679 5680 5681 5682 0
-5683 2059 0
-5683 155 0
-5684 2060 0
-5684 156 0
-5685 2061 0
-5685 157 0
-5686 2062 0
-5686 158 0
-5687 2063 0
-5687 159 0
-5688 2064 0
-5688 160 0
-5689 2065 0
-5689 161 0
-5690 2066 0
-5690 162 0
-5691 2067 0
-5691 163 0
-5692 2068 0
-5692 164 0
-5693 2069 0
-5693 165 0
-5694 2070 0
-5694 166 0
-5695 2071 0
-5695 167 0
-5696 2072 0
-5696 168 0
5683 5684 5685 5686 5687 5688 5689 5690 5691 5692 5693 5694 5695 5696 0
-5697 2112 0
-5697 43 0
-5698 2113 0
-5698 44 0
-5699 2114 0
-5699 45 0
-5700 2115 0
-5700 46 0
-5701 2116 0
-5701 47 0
-5702 2117 0
-5702 48 0
-5703 2118 0
-5703 49 0
-5704 2119 0
-5704 50 0
-5705 2120 0
-5705 51 0
-5706 2121 0
-5706 52 0
-5707 2122 0
-5707 53 0
-5708 2123 0
-5708 54 0
-5709 2124 0
-5709 55 0
-5710 2125 0
-5710 56 0
5697 5698 5699 5700 5701 5702 5703 5704 5705 5706 5707 5708 5709 5710 0
-5711 2112 0
-5711 57 0
-5712 2113 0
-5712 58 0
-5713 2114 0
-5713 59 0
-5714 2115 0
-5714 60 0
-5715 2116 0
-5715 61 0
-5716 2117 0
-5716 62 0
-5717 2118 0
-5717 63 0
-5718 2119 0
-5718 64 0
-5719 2120 0
-5719 65 0
-5720 2121 0
-5720 66 0
-5721 2122 0
-5721 67 0
-5722 2123 0
-5722 68 0
-5723 2124 0
-5723 69 0
-5724 2125 0
-5724 70 0
5711 5712 5713 5714 5715 5716 5717 5718 5719 5720 5721 5722 5723 5724 0
-5725 2112 0
-5725 71 0
-5726 2113 0
-5726 72 0
-5727 2114 0
-5727 73 0
-5728 2115 0
-5728 74 0
-5729 2116 0
-5729 75 0
-5730 2117 0
-5730 76 0
-5731 2118 0
-5731 77 0
-5732 2119 0
-5732 78 0
-5733 2120 0
-5733 79 0
-5734 2121 0
-5734 80 0
-5735 2122 0
-5735 81 0
-5736 2123 0
-5736 82 0
-5737 2124 0
-5737 83 0
-5738 2125 0
-5738 84 0
5725 5726 5727 5728 5729 5730 5731 5732 5733 5734 5735 5736 5737 5738 0
-5739 2112 0
-5739 85 0
-5740 2113 0
-5740 86 0
-5741 2114 0
-5741 87 0
-5742 2115 0
-5742 88 0
-5743 2116 0
-5743 89 0
-5744 2117 0
-5744 90 0
-5745 2118 0
-5745 91 0
-5746 2119 0
-5746 92 0
-5747 2120 0
-5747 93 0
-5748 2121 0
-5748 94 0
-5749 2122 0
-5749 95 0
-5750 2123 0
-5750 96 0
-5751 2124 0
-5751 97 0
-5752 2125 0
-5752 98 0
5739 5740 5741 5742 5743 5744 5745 5746 5747 5748 5749 5750 5751 5752 0
-5753 2112 0
-5753 99 0
-5754 2113 0
-5754 100 0
-5755 2114 0
-5755 101 0
-5756 2115 0
-5756 102 0
-5757 2116 0
-5757 103 0
-5758 2117 0
-5758 104 0
-5759 2118 0
-5759 105 0
-5760 2119 0
-5760 106 0
-5761 2120 0
-5761 107 0
-5762 2121 0
-5762 108 0
-5763 2122 0
-5763 109 0
-5764 2123 0
-5764 110 0
-5765 2124 0
-5765 111 0
-5766 2125 0
-5766 112 0
5753 5754 5755 5756 5757 5758 5759 5760 5761 5762 5763 5764 5765 5766 0
-5767 2112 0
-5767 113 0
-5768 2113 0
-5768 114 0
-5769 2114 0
-5769 115 0
-5770 2115 0
-5770 116 0
-5771 2116 0
-5771 117 0
-5772 2117 0
-5772 118 0
-5773 2118 0
-5773 119 0
-5774 2119 0
-5774 120 0
-5775 2120 0
-5775 121 0
-5776 2121 0
-5776 122 0
-5777 2122 0
-5777 123 0
-5778 2123 0
-5778 124 0
-5779 2124 0
-5779 125 0
-5780 2125 0
-5780 126 0
5767 5768 5769 5770 5771 5772 5773 5774 5775 5776 5777 5778 5779 5780 0
-5781 2112 0
-5781 127 0
-5782 2113 0
-5782 128 0
-5783 2114 0
-5783 129 0
-5784 2115 0
-5784 130 0
-5785 2116 0
-5785 131 0
-5786 2117 0
-5786 132 0
-5787 2118 0
-5787 133 0
-5788 2119 0
-5788 134 0
-5789 2120 0
-5789 135 0
-5790 2121 0
-5790 136 0
-5791 2122 0
-5791 137 0
-5792 2123 0
-5792 138 0
-5793 2124 0
-5793 139 0
-5794 2125 0
-5794 140 0
5781 5782 5783 5784 5785 5786 5787 5788 5789 5790 5791 5792 5793 5794 0
-5795 2112 0
-5795 141 0
-5796 2113 0
-5796 142 0
-5797 2114 0
-5797 143 0
-5798 2115 0
-5798 144 0
-5799 2116 0
-5799 145 0
-5800 2117 0
-5800 146 0
-5801 2118 0
-5801 147 0
-5802 2119 0
-5802 148 0
-5803 2120 0
-5803 149 0
-5804 2121 0
-5804 150 0
-5805 2122 0
-5805 151 0
-5806 2123 0
-5806 152 0
-5807 2124 0
-5807 153 0
-5808 2125 0
-5808 154 0
5795 5796 5797 5798 5799 5800 5801 5802 5803 5804 5805 5806 5807 5808 0
-5809 2112 0
-5809 155 0
-5810 2113 0
-5810 156 0
-5811 2114 0
-5811 157 0
-5812 2115 0
-5812 158 0
-5813 2116 0
-5813 159 0
-5814 2117 0
-5814 160 0
-5815 2118 0
-5815 161 0
-5816 2119 0
-5816 162 0
-5817 2120 0
-5817 163 0
-5818 2121 0
-5818 164 0
-5819 2122 0
-5819 165 0
-5820 2123 0
-5820 166 0
-5821 2124 0
-5821 167 0
-5822 2125 0
-5822 168 0
5809 5810 5811 5812 5813 5814 5815 5816 5817 5818 5819 5820 5821 5822 0
-5823 2165 0
-5823 57 0
-5824 2166 0
-5824 58 0
-5825 2167 0
-5825 59 0
-5826 2168 0
-5826 60 0
-5827 2169 0
-5827 61 0
-5828 2170 0
-5828 62 0
-5829 2171 0
-5829 63 0
-5830 2172 0
-5830 64 0
-5831 2173 0
-5831 65 0
-5832 2174 0
-5832 66 0
-5833 2175 0
-5833 67 0
-5834 2176 0
-5834 68 0
-5835 2177 0
-5835 69 0
-5836 2178 0
-5836 70 0
5823 5824 5825 5826 5827 5828 5829 5830 5831 5832 5833 5834 5835 5836 0
-5837 2165 0
-5837 71 0
-5838 2166 0
-5838 72 0
-5839 2167 0
-5839 73 0
-5840 2168 0
-5840 74 0
-5841 2169 0
-5841 75 0
-5842 2170 0
-5842 76 0
-5843 2171 0
-5843 77 0
-5844 2172 0
-5844 78 0
-5845 2173 0
-5845 79 0
-5846 2174 0
-5846 80 0
-5847 2175 0
-5847 81 0
-5848 2176 0
-5848 82 0
-5849 2177 0
-5849 83 0
-5850 2178 0
-5850 84 0
5837 5838 5839 5840 5841 5842 5843 5844 5845 5846 5847 5848 5849 5850 0
-5851 2165 0
-5851 85 0
-5852 2166 0
-5852 86 0
-5853 2167 0
-5853 87 0
-5854 2168 0
-5854 88 0
-5855 2169 0
-5855 89 0
-5856 2170 0
-5856 90 0
-5857 2171 0
-5857 91 0
-5858 2172 0
-5858 92 0
-5859 2173 0
-5859 93 0
-5860 2174 0
-5860 94 0
-5861 2175 0
-5861 95 0
-5862 2176 0
-5862 96 0
-5863 2177 0
-5863 97 0
-5864 2178 0
-5864 98 0
5851 5852 5853 5854 5855 5856 5857 5858 5859 5860 5861 5862 5863 5864 0
-5865 2165 0
-5865 99 0
-5866 2166 0
-5866 100 0
-5867 2167 0
-5867 101 0
-5868 2168 0
-5868 102 0
-5869 2169 0
-5869 103 0
-5870 2170 0
-5870 104 0
-5871 2171 0
-5871 105 0
-5872 2172 0
-5872 106 0
-5873 2173 0
-5873 107 0
-5874 2174 0
-5874 108 0
-5875 2175 0
-5875 109 0
-5876 2176 0
-5876 110 0
-5877 2177 0
-5877 111 0
-5878 2178 0
-5878 112 0
5865 5866 5867 5868 5869 5870 5871 5872 5873 5874 5875 5876 5877 5878 0
-5879 2165 0
-5879 113 0
-5880 2166 0
-5880 114 0
-5881 2167 0
-5881 115 0
-5882 2168 0
-5882 116 0
-5883 2169 0
-5883 117 0
-5884 2170 0
-5884 118 0
-5885 2171 0
-5885 119 0
-5886 2172 0
-5886 120 0
-5887 2173 0
-5887 121 0
-5888 2174 0
-5888 122 0
-5889 2175 0
-5889 123 0
-5890 2176 0
-5890 124 0
-5891 2177 0
-5891 125 0
-5892 2178 0
-5892 126 0
5879 5880 5881 5882 5883 5884 5885 5886 5887 5888 5889 5890 5891 5892 0
-5893 2165 0
-5893 127 0
-5894 2166 0
-5894 128 0
-5895 2167 0
-5895 129 0
-5896 2168 0
-5896 130 0
-5897 2169 0
-5897 131 0
-5898 2170 0
-5898 132 0
-5899 2171 0
-5899 133 0
-5900 2172 0
-5900 134 0
-5901 2173 0
-5901 135 0
-5902 2174 0
-5902 136 0
-5903 2175 0
-5903 137 0
-5904 2176 0
-5904 138 0
-5905 2177 0
-5905 139 0
-5906 2178 0
-5906 140 0
5893 5894 5895 5896 5897 5898 5899 5900 5901 5902 5903 5904 5905 5906 0
-5907 2165 0
-5907 141 0
-5908 2166 0
-5908 142 0
-5909 2167 0
-5909 143 0
-5910 2168 0
-5910 144 0
-5911 2169 0
-5911 145 0
-5912 2170 0
-5912 146 0
-5913 2171 0
-5913 147 0
-5914 2172 0
-5914 148 0
-5915 2173 0
-5915 149 0
-5916 2174 0
-5916 150 0
-5917 2175 0
-5917 151 0
-5918 2176 0
-5918 152 0
-5919 2177 0
-5919 153 0
-5920 2178 0
-5920 154 0
5907 5908 5909 5910 5911 5912 5913 5914 5915 5916 5917 5918 5919 5920 0
-5921 2165 0
-5921 155 0
-5922 2166 0
-5922 156 0
-5923 2167 0
-5923 157 0
-5924 2168 0
-5924 158 0
-5925 2169 0
-5925 159 0
-5926 2170 0
-5926 160 0
-5927 2171 0
-5927 161 0
-5928 2172 0
-5928 162 0
-5929 2173 0
-5929 163 0
-5930 2174 0
-5930 164 0
-5931 2175 0
-5931 165 0
-5932 2176 0
-5932 166 0
-5933 2177 0
-5933 167 0
-5934 2178 0
-5934 168 0
5921 5922 5923 5924 5925 5926 5927 5928 5929 5930 5931 5932 5933 5934 0
-5935 2218 0
-5935 71 0
-5936 2219 0
-5936 72 0
-5937 2220 0
-5937 73 0
-5938 2221 0
-5938 74 0
-5939 2222 0
-5939 75 0
-5940 2223 0
-5940 76 0
-5941 2224 0
-5941 77 0
-5942 2225 0
-5942 78 0
-5943 2226 0
-5943 79 0
-5944 2227 0
-5944 80 0
-5945 2228 0
-5945 81 0
-5946 2229 0
-5946 82 0
-5947 2230 0
-5947 83 0
-5948 2231 0
-5948 84 0
5935 5936 5937 5938 5939 5940 5941 5942 5943 5944 5945 5946 5947 5948 0
-5949 2218 0
-5949 85 0
-5950 2219 0
-5950 86 0
-5951 2220 0
-5951 87 0
-5952 2221 0
-5952 88 0
-5953 2222 0
-5953 89 0
-5954 2223 0
-5954 90 0
-5955 2224 0
-5955 91 0
-5956 2225 0
-5956 92 0
-5957 2226 0
-5957 93 0
-5958 2227 0
-5958 94 0
-5959 2228 0
-5959 95 0
-5960 2229 0
-5960 96 0
-5961 2230 0
-5961 97 0
-5962 2231 0
-5962 98 0
5949 5950 5951 5952 5953 5954 5955 5956 5957 5958 5959 5960 5961 5962 0
-5963 2218 0
-5963 99 0
-5964 2219 0
-5964 100 0
-5965 2220 0
-5965 101 0
-5966 2221 0
-5966 102 0
-5967 2222 0
-5967 103 0
-5968 2223 0
-5968 104 0
-5969 2224 0
-5969 105 0
-5970 2225 0
-5970 106 0
-5971 2226 0
-5971 107 0
-5972 2227 0
-5972 108 0
-5973 2228 0
-5973 109 0
-5974 2229 0
-5974 110 0
-5975 2230 0
-5975 111 0
-5976 2231 0
-5976 112 0
5963 5964 5965 5966 5967 5968 5969 5970 5971 5972 5973 5974 5975 5976 0
-5977 2218 0
-5977 113 0
-5978 2219 0
-5978 114 0
-5979 2220 0
-5979 115 0
-5980 2221 0
-5980 116 0
-5981 2222 0
-5981 117 0
-5982 2223 0
-5982 118 0
-5983 2224 0
-5983 119 0
-5984 2225 0
-5984 120 0
-5985 2226 0
-5985 121 0
-5986 2227 0
-5986 122 0
-5987 2228 0
-5987 123 0
-5988 2229 0
-5988 124 0
-5989 2230 0
-5989 125 0
-5990 2231 0
-5990 126 0
5977 5978 5979 5980 5981 5982 5983 5984 5985 5986 5987 5988 5989 5990 0
-5991 2218 0
-5991 127 0
-5992 2219 0
-5992 128 0
-5993 2220 0
-5993 129 0
-5994 2221 0
-5994 130 0
-5995 2222 0
-5995 131 0
-5996 2223 0
-5996 132 0
-5997 2224 0
-5997 133 0
-5998 2225 0
-5998 134 0
-5999 2226 0
-5999 135 0
-6000 2227 0
-6000 136 0
-6001 2228 0
-6001 137 0
-6002 2229 0
-6002 138 0
-6003 2230 0
-6003 139 0
-6004 2231 0
-6004 140 0
5991 5992 5993 5994 5995 5996 5997 5998 5999 6000 6001 6002 6003 6004 0
-6005 2218 0
-6005 141 0
-6006 2219 0
-6006 142 0
-6007 2220 0
-6007 143 0
-6008 2221 0
-6008 144 0
-6009 2222 0
-6009 145 0
-6010 2223 0
-6010 146 0
-6011 2224 0
-6011 147 0
-6012 2225 0
-6012 148 0
-6013 2226 0
-6013 149 0
-6014 2227 0
-6014 150 0
-6015 2228 0
-6015 151 0
-6016 2229 0
-6016 152 0
-6017 2230 0
-6017 153 0
-6018 2231 0
-6018 154 0
6005 6006 6007 6008 6009 6010 6011 6012 6013 6014 6015 6016 6017 6018 0
-6019 2218 0
-6019 155 0
-6020 2219 0
-6020 156 0
-6021 2220 0
-6021 157 0
-6022 2221 0
-6022 158 0
-6023 2222 0
-6023 159 0
-6024 2223 0
-6024 160 0
-6025 2224 0
-6025 161 0
-6026 2225 0
-6026 162 0
-6027 2226 0
-6027 163 0
-6028 2227 0
-6028 164 0
-6029 2228 0
-6029 165 0
-6030 2229 0
-6030 166 0
-6031 2230 0
-6031 167 0
-6032 2231 0
-6032 168 0
6019 6020 6021 6022 6023 6024 6025 6026 6027 6028 6029 6030 6031 6032 0
-6033 2271 0
-6033 85 0
-6034 2272 0
-6034 86 0
-6035 2273 0
-6035 87 0
-6036 2274 0
-6036 88 0
-6037 2275 0
-6037 89 0
-6038 2276 0
-6038 90 0
-6039 2277 0
-6039 91 0
-6040 2278 0
-6040 92 0
-6041 2279 0
-6041 93 0
-6042 2280 0
-6042 94 0
-6043 2281 0
-6043 95 0
-6044 2282 0
-6044 96 0
-6045 2283 0
-6045 97 0
-6046 2284 0
-6046 98 0
6033 6034 6035 6036 6037 6038 6039 6040 6041 6042 6043 6044 6045 6046 0
-6047 2271 0
-6047 99 0
-6048 2272 0
-6048 100 0
-6049 2273 0
-6049 101 0
-6050 2274 0
-6050 102 0
-6051 2275 0
-6051 103 0
-6052 2276 0
-6052 104 0
-6053 2277 0
-6053 105 0
-6054 2278 0
-6054 106 0
-6055 2279 0
-6055 107 0
-6056 2280 0
-6056 108 0
-6057 2281 0
-6057 109 0
-6058 2282 0
-6058 110 0
-6059 2283 0
-6059 111 0
-6060 2284 0
-6060 112 0
6047 6048 6049 6050 6051 6052 6053 6054 6055 6056 6057 6058 6059 6060 0
-6061 2271 0
-6061 113 0
-6062 2272 0
-6062 114 0
-6063 2273 0
-6063 115 0
-6064 2274 0
-6064 116 0
-6065 2275 0
-6065 117 0
-6066 2276 0
-6066 118 0
-6067 2277 0
-6067 119 0
-6068 2278 0
-6068 120 0
-6069 2279 0
-6069 121 0
-6070 2280 0
-6070 122 0
-6071 2281 0
-6071 123 0
-6072 2282 0
-6072 124 0
-6073 2283 0
-6073 125 0
-6074 2284 0
-6074 126 0
6061 6062 6063 6064 6065 6066 6067 6068 6069 6070 6071 6072 6073 6074 0
-6075 2271 0
-6075 127 0
-6076 2272 0
-6076 128 0
-6077 2273 0
-6077 129 0
-6078 2274 0
-6078 130 0
-6079 2275 0
-6079 131 0
-6080 2276 0
-6080 132 0
-6081 2277 0
-6081 133 0
-6082 2278 0
-6082 134 0
-6083 2279 0
-6083 135 0
-6084 2280 0
-6084 136 0
-6085 2281 0
-6085 137 0
-6086 2282 0
-6086 138 0
-6087 2283 0
-6087 139 0
-6088 2284 0
-6088 140 0
6075 6076 6077 6078 6079 6080 6081 6082 6083 6084 6085 6086 6087 6088 0
-6089 2271 0
-6089 141 0
-6090 2272 0
-6090 142 0
-6091 2273 0
-6091 143 0
-6092 2274 0
-6092 144 0
-6093 2275 0
-6093 145 0
-6094 2276 0
-6094 146 0
-6095 2277 0
-6095 147 0
-6096 2278 0
-6096 148 0
-6097 2279 0
-6097 149 0
-6098 2280 0
-6098 150 0
-6099 2281 0
-6099 151 0
-6100 2282 0
-6100 152 0
-6101 2283 0
-6101 153 0
-6102 2284 0
-6102 154 0
6089 6090 6091 6092 6093 6094 6095 6096 6097 6098 6099 6100 6101 6102 0
-6103 2271 0
-6103 155 0
-6104 2272 0
-6104 156 0
-6105 2273 0
-6105 157 0
-6106 2274 0
-6106 158 0
-6107 2275 0
-6107 159 0
-6108 2276 0
-6108 160 0
-6109 2277 0
-6109 161 0
-6110 2278 0
-6110 162 0
-6111 2279 0
-6111 163 0
-6112 2280 0
-6112 164 0
-6113 2281 0
-6113 165 0
-6114 2282 0
-6114 166 0
-6115 2283 0
-6115 167 0
-6116 2284 0
-6116 168 0
6103 6104 6105 6106 6107 6108 6109 6110 6111 6112 6113 6114 6115 6116 0
-6117 2324 0
-6117 99 0
-6118 2325 0
-6118 100 0
-6119 2326 0
-6119 101 0
-6120 2327 0
-6120 102 0
-6121 2328 0
-6121 103 0
-6122 2329 0
-6122 104 0
-6123 2330 0
-6123 105 0
-6124 2331 0
-6124 106 0
-6125 2332 0
-6125 107 0
-6126 2333 0
-6126 108 0
-6127 2334 0
-6127 109 0
-6128 2335 0
-6128 110 0
-6129 2336 0
-6129 111 0
-6130 2337 0
-6130 112 0
6117 6118 6119 6120 6121 6122 6123 6124 6125 6126 6127 6128 6129 6130 0
-6131 2324 0
-6131 113 0
-6132 2325 0
-6132 114 0
-6133 2326 0
-6133 115 0
-6134 2327 0
-6134 116 0
-6135 2328 0
-6135 117 0
-6136 2329 0
-6136 118 0
-6137 2330 0
-6137 119 0
-6138 2331 0
-6138 120 0
-6139 2332 0
-6139 121 0
-6140 2333 0
-6140 122 0
-6141 2334 0
-6141 123 0
-6142 2335 0
-6142 124 0
-6143 2336 0
-6143 125 0
-6144 2337 0
-6144 126 0
6131 6132 6133 6134 6135 6136 6137 6138 6139 6140 6141 6142 6143 6144 0
-6145 2324 0
-6145 127 0
-6146 2325 0
-6146 128 0
-6147 2326 0
-6147 129 0
-6148 2327 0
-6148 130 0
-6149 2328 0
-6149 131 0
-6150 2329 0
-6150 132 0
-6151 2330 0
-6151 133 0
-6152 2331 0
-6152 134 0
-6153 2332 0
-6153 135 0
-6154 2333 0
-6154 136 0
-6155 2334 0
-6155 137 0
-6156 2335 0
-6156 138 0
-6157 2336 0
-6157 139 0
-6158 2337 0
-6158 140 0
6145 6146 6147 6148 6149 6150 6151 6152 6153 6154 6155 6156 6157 6158 0
-6159 2324 0
-6159 141 0
-6160 2325 0
-6160 142 0
-6161 2326 0
-6161 143 0
-6162 2327 0
-6162 144 0
-6163 2328 0
-6163 145 0
-6164 2329 0
-6164 146 0
-6165 2330 0
-6165 147 0
-6166 2331 0
-6166 148 0
-6167 2332 0
-6167 149 0
-6168 2333 0
-6168 150 0
-6169 2334 0
-6169 151 0
-6170 2335 0
-6170 152 0
-6171 2336 0
-6171 153 0
-6172 2337 0
-6172 154 0
6159 6160 6161 6162 6163 6164 6165 6166 6167 6168 6169 6170 6171 6172 0
-6173 2324 0
-6173 155 0
-6174 2325 0
-6174 156 0
-6175 2326 0
-6175 157 0
-6176 2327 0
-6176 158 0
-6177 2328 0
-6177 159 0
-6178 2329 0
-6178 160 0
-6179 2330 0
-6179 161 0
-6180 2331 0
-6180 162 0
-6181 2332 0
-6181 163 0
-6182 2333 0
-6182 164 0
-6183 2334 0
-6183 165 0
-6184 2335 0
-6184 166 0
-6185 2336 0
-6185 167 0
-6186 2337 0
-6186 168 0
6173 6174 6175 6176 6177 6178 6179 6180 6181 6182 6183 6184 6185 6186 0
-6187 2377 0
-6187 113 0
-6188 2378 0
-6188 114 0
-6189 2379 0
-6189 115 0
-6190 2380 0
-6190 116 0
-6191 2381 0
-6191 117 0
-6192 2382 0
-6192 118 0
-6193 2383 0
-6193 119 0
-6194 2384 0
-6194 120 0
-6195 2385 0
-6195 121 0
-6196 2386 0
-6196 122 0
-6197 2387 0
-6197 123 0
-6198 2388 0
-6198 124 0
-6199 2389 0
-6199 125 0
-6200 2390 0
-6200 126 0
6187 6188 6189 6190 6191 6192 6193 6194 6195 6196 6197 6198 6199 6200 0
-6201 2377 0
-6201 127 0
-6202 2378 0
-6202 128 0
-6203 2379 0
-6203 129 0
-6204 2380 0
-6204 130 0
-6205 2381 0
-6205 131 0
-6206 2382 0
-6206 132 0
-6207 2383 0
-6207 133 0
-6208 2384 0
-6208 134 0
-6209 2385 0
-6209 135 0
-6210 2386 0
-6210 136 0
-6211 2387 0
-6211 137 0
-6212 2388 0
-6212 138 0
-6213 2389 0
-6213 139 0
-6214 2390 0
-6214 140 0
6201 6202 6203 6204 6205 6206 6207 6208 6209 6210 6211 6212 6213 6214 0
-6215 2377 0
-6215 141 0
-6216 2378 0
-6216 142 0
-6217 2379 0
-6217 143 0
-6218 2380 0
-6218 144 0
-6219 2381 0
-6219 145 0
-6220 2382 0
-6220 146 0
-6221 2383 0
-6221 147 0
-6222 2384 0
-6222 148 0
-6223 2385 0
-6223 149 0
-6224 2386 0
-6224 150 0
-6225 2387 0
-6225 151 0
-6226 2388 0
-6226 152 0
-6227 2389 0
-6227 153 0
-6228 2390 0
-6228 154 0
6215 6216 6217 6218 6219 6220 6221 6222 6223 6224 6225 6226 6227 6228 0
-6229 2377 0
-6229 155 0
-6230 2378 0
-6230 156 0
-6231 2379 0
-6231 157 0
-6232 2380 0
-6232 158 0
-6233 2381 0
-6233 159 0
-6234 2382 0
-6234 160 0
-6235 2383 0
-6235 161 0
-6236 2384 0
-6236 162 0
-6237 2385 0
-6237 163 0
-6238 2386 0
-6238 164 0
-6239 2387 0
-6239 165 0
-6240 2388 0
-6240 166 0
-6241 2389 0
-6241 167 0
-6242 2390 0
-6242 168 0
6229 6230 6231 6232 6233 6234 6235 6236 6237 6238 6239 6240 6241 6242 0
-6243 2430 0
-6243 127 0
-6244 2431 0
-6244 128 0
-6245 2432 0
-6245 129 0
-6246 2433 0
-6246 130 0
-6247 2434 0
-6247 131 0
-6248 2435 0
-6248 132 0
-6249 2436 0
-6249 133 0
-6250 2437 0
-6250 134 0
-6251 2438 0
-6251 135 0
-6252 2439 0
-6252 136 0
-6253 2440 0
-6253 137 0
-6254 2441 0
-6254 138 0
-6255 2442 0
-6255 139 0
-6256 2443 0
-6256 140 0
6243 6244 6245 6246 6247 6248 6249 6250 6251 6252 6253 6254 6255 6256 0
-6257 2430 0
-6257 141 0
-6258 2431 0
-6258 142 0
-6259 2432 0
-6259 143 0
-6260 2433 0
-6260 144 0
-6261 2434 0
-6261 145 0
-6262 2435 0
-6262 146 0
-6263 2436 0
-6263 147 0
-6264 2437 0
-6264 148 0
-6265 2438 0
-6265 149 0
-6266 2439 0
-6266 150 0
-6267 2440 0
-6267 151 0
-6268 2441 0
-6268 152 0
-6269 2442 0
-6269 153 0
-6270 2443 0
-6270 154 0
6257 6258 6259 6260 6261 6262 6263 6264 6265 6266 6267 6268 6269 6270 0
-6271 2430 0
-6271 155 0
-6272 2431 0
-6272 156 0
-6273 2432 0
-6273 157 0
-6274 2433 0
-6274 158 0
-6275 2434 0
-6275 159 0
-6276 2435 0
-6276 160 0
-6277 2436 0
-6277 161 0
-6278 2437 0
-6278 162 0
-6279 2438 0
-6279 163 0
-6280 2439 0
-6280 164 0
-6281 2440 0
-6281 165 0
-6282 2441 0
-6282 166 0
-6283 2442 0
-6283 167 0
-6284 2443 0
-6284 168 0
6271 6272 6273 6274 6275 6276 6277 6278 6279 6280 6281 6282 6283 6284 0
-6285 2483 0
-6285 141 0
-6286 2484 0
-6286 142 0
-6287 2485 0
-6287 143 0
-6288 2486 0
-6288 144 0
-6289 2487 0
-6289 145 0
-6290 2488 0
-6290 146 0
-6291 2489 0
-6291 147 0
-6292 2490 0
-6292 148 0
-6293 2491 0
-6293 149 0
-6294 2492 0
-6294 150 0
-6295 2493 0
-6295 151 0
-6296 2494 0
-6296 152 0
-6297 2495 0
-6297 153 0
-6298 2496 0
-6298 154 0
6285 6286 6287 6288 6289 6290 6291 6292 6293 6294 6295 6296 6297 6298 0
-6299 2483 0
-6299 155 0
-6300 2484 0
-6300 156 0
-6301 2485 0
-6301 157 0
-6302 2486 0
-6302 158 0
-6303 2487 0
-6303 159 0
-6304 2488 0
-6304 160 0
-6305 2489 0
-6305 161 0
-6306 2490 0
-6306 162 0
-6307 2491 0
-6307 163 0
-6308 2492 0
-6308 164 0
-6309 2493 0
-6309 165 0
-6310 2494 0
-6310 166 0
-6311 2495 0
-6311 167 0
-6312 2496 0
-6312 168 0
6299 6300 6301 6302 6303 6304 6305 6306 6307 6308 6309 6310 6311 6312 0
-6313 2536 0
-6313 155 0
-6314 2537 0
-6314 156 0
-6315 2538 0
-6315 157 0
-6316 2539 0
-6316 158 0
-6317 2540 0
-6317 159 0
-6318 2541 0
-6318 160 0
-6319 2542 0
-6319 161 0
-6320 2543 0
-6320 162 0
-6321 2544 0
-6321 163 0
-6322 2545 0
-6322 164 0
-6323 2546 0
-6323 165 0
-6324 2547 0
-6324 166 0
-6325 2548 0
-6325 167 0
-6326 2549 0
-6326 168 0
6313 6314 6315 6316 6317 6318 6319 6320 6321 6322 6323 6324 6325 6326 0
-6327 2642 0
-6327 43 0
-6328 2643 0
-6328 44 0
-6329 2644 0
-6329 45 0
-6330 2645 0
-6330 46 0
-6331 2646 0
-6331 47 0
-6332 2647 0
-6332 48 0
-6333 2648 0
-6333 49 0
-6334 2649 0
-6334 50 0
-6335 2650 0
-6335 51 0
-6336 2651 0
-6336 52 0
-6337 2652 0
-6337 53 0
-6338 2653 0
-6338 54 0
-6339 2654 0
-6339 55 0
-6340 2655 0
-6340 56 0
6327 6328 6329 6330 6331 6332 6333 6334 6335 6336 6337 6338 6339 6340 0
-6341 2642 0
-6341 57 0
-6342 2643 0
-6342 58 0
-6343 2644 0
-6343 59 0
-6344 2645 0
-6344 60 0
-6345 2646 0
-6345 61 0
-6346 2647 0
-6346 62 0
-6347 2648 0
-6347 63 0
-6348 2649 0
-6348 64 0
-6349 2650 0
-6349 65 0
-6350 2651 0
-6350 66 0
-6351 2652 0
-6351 67 0
-6352 2653 0
-6352 68 0
-6353 2654 0
-6353 69 0
-6354 2655 0
-6354 70 0
6341 6342 6343 6344 6345 6346 6347 6348 6349 6350 6351 6352 6353 6354 0
-6355 2642 0
-6355 71 0
-6356 2643 0
-6356 72 0
-6357 2644 0
-6357 73 0
-6358 2645 0
-6358 74 0
-6359 2646 0
-6359 75 0
-6360 2647 0
-6360 76 0
-6361 2648 0
-6361 77 0
-6362 2649 0
-6362 78 0
-6363 2650 0
-6363 79 0
-6364 2651 0
-6364 80 0
-6365 2652 0
-6365 81 0
-6366 2653 0
-6366 82 0
-6367 2654 0
-6367 83 0
-6368 2655 0
-6368 84 0
6355 6356 6357 6358 6359 6360 6361 6362 6363 6364 6365 6366 6367 6368 0
-6369 2642 0
-6369 85 0
-6370 2643 0
-6370 86 0
-6371 2644 0
-6371 87 0
-6372 2645 0
-6372 88 0
-6373 2646 0
-6373 89 0
-6374 2647 0
-6374 90 0
-6375 2648 0
-6375 91 0
-6376 2649 0
-6376 92 0
-6377 2650 0
-6377 93 0
-6378 2651 0
-6378 94 0
-6379 2652 0
-6379 95 0
-6380 2653 0
-6380 96 0
-6381 2654 0
-6381 97 0
-6382 2655 0
-6382 98 0
6369 6370 6371 6372 6373 6374 6375 6376 6377 6378 6379 6380 6381 6382 0
-6383 2642 0
-6383 99 0
-6384 2643 0
-6384 100 0
-6385 2644 0
-6385 101 0
-6386 2645 0
-6386 102 0
-6387 2646 0
-6387 103 0
-6388 2647 0
-6388 104 0
-6389 2648 0
-6389 105 0
-6390 2649 0
-6390 106 0
-6391 2650 0
-6391 107 0
-6392 2651 0
-6392 108 0
-6393 2652 0
-6393 109 0
-6394 2653 0
-6394 110 0
-6395 2654 0
-6395 111 0
-6396 2655 0
-6396 112 0
6383 6384 6385 6386 6387 6388 6389 6390 6391 6392 6393 6394 6395 6396 0
-6397 2642 0
-6397 113 0
-6398 2643 0
-6398 114 0
-6399 2644 0
-6399 115 0
-6400 2645 0
-6400 116 0
-6401 2646 0
-6401 117 0
-6402 2647 0
-6402 118 0
-6403 2648 0
-6403 119 0
-6404 2649 0
-6404 120 0
-6405 2650 0
-6405 121 0
-6406 2651 0
-6406 122 0
-6407 2652 0
-6407 123 0
-6408 2653 0
-6408 124 0
-6409 2654 0
-6409 125 0
-6410 2655 0
-6410 126 0
6397 6398 6399 6400 6401 6402 6403 6404 6405 6406 6407 6408 6409 6410 0
-6411 2642 0
-6411 127 0
-6412 2643 0
-6412 128 0
-6413 2644 0
-6413 129 0
-6414 2645 0
-6414 130 0
-6415 2646 0
-6415 131 0
-6416 2647 0
-6416 132 0
-6417 2648 0
-6417 133 0
-6418 2649 0
-6418 134 0
-6419 2650 0
-6419 135 0
-6420 2651 0
-6420 136 0
-6421 2652 0
-6421 137 0
-6422 2653 0
-6422 138 0
-6423 2654 0
-6423 139 0
-6424 2655 0
-6424 140 0
6411 6412 6413 6414 6415 6416 6417 6418 6419 6420 6421 6422 6423 6424 0
-6425 2642 0
-6425 141 0
-6426 2643 0
-6426 142 0
-6427 2644 0
-6427 143 0
-6428 2645 0
-6428 144 0
-6429 2646 0
-6429 145 0
-6430 2647 0
-6430 146 0
-6431 2648 0
-6431 147 0
-6432 2649 0
-6432 148 0
-6433 2650 0
-6433 149 0
-6434 2651 0
-6434 150 0
-6435 2652 0
-6435 151 0
-6436 2653 0
-6436 152 0
-6437 2654 0
-6437 153 0
-6438 2655 0
-6438 154 0
6425 6426 6427 6428 6429 6430 6431 6432 6433 6434 6435 6436 6437 6438 0
-6439 2642 0
-6439 155 0
-6440 2643 0
-6440 156 0
-6441 2644 0
-6441 157 0
-6442 2645 0
-6442 158 0
-6443 2646 0
-6443 159 0
-6444 2647 0
-6444 160 0
-6445 2648 0
-6445 161 0
-6446 2649 0
-6446 162 0
-6447 2650 0
-6447 163 0
-6448 2651 0
-6448 164 0
-6449 2652 0
-6449 165 0
-6450 2653 0
-6450 166 0
-6451 2654 0
-6451 167 0
-6452 2655 0
-6452 168 0
6439 6440 6441 6442 6443 6444 6445 6446 6447 6448 6449 6450 6451 6452 0
-6453 2695 0
-6453 57 0
-6454 2696 0
-6454 58 0
-6455 2697 0
-6455 59 0
-6456 2698 0
-6456 60 0
-6457 2699 0
-6457 61 0
-6458 2700 0
-6458 62 0
-6459 2701 0
-6459 63 0
-6460 2702 0
-6460 64 0
-6461 2703 0
-6461 65 0
-6462 2704 0
-6462 66 0
-6463 2705 0
-6463 67 0
-6464 2706 0
-6464 68 0
-6465 2707 0
-6465 69 0
-6466 2708 0
-6466 70 0
6453 6454 6455 6456 6457 6458 6459 6460 6461 6462 6463 6464 6465 6466 0
-6467 2695 0
-6467 71 0
-6468 2696 0
-6468 72 0
-6469 2697 0
-6469 73 0
-6470 2698 0
-6470 74 0
-6471 2699 0
-6471 75 0
-6472 2700 0
-6472 76 0
-6473 2701 0
-6473 77 0
-6474 2702 0
-6474 78 0
-6475 2703 0
-6475 79 0
-6476 2704 0
-6476 80 0
-6477 2705 0
-6477 81 0
-6478 2706 0
-6478 82 0
-6479 2707 0
-6479 83 0
-6480 2708 0
-6480 84 0
6467 6468 6469 6470 6471 6472 6473 6474 6475 6476 6477 6478 6479 6480 0
-6481 2695 0
-6481 85 0
-6482 2696 0
-6482 86 0
-6483 2697 0
-6483 87 0
-6484 2698 0
-6484 88 0
-6485 2699 0
-6485 89 0
-6486 2700 0
-6486 90 0
-6487 2701 0
-6487 91 0
-6488 2702 0
-6488 92 0
-6489 2703 0
-6489 93 0
-6490 2704 0
-6490 94 0
-6491 2705 0
-6491 95 0
-6492 2706 0
-6492 96 0
-6493 2707 0
-6493 97 0
-6494 2708 0
-6494 98 0
6481 6482 6483 6484 6485 6486 6487 6488 6489 6490 6491 6492 6493 6494 0
-6495 2695 0
-6495 99 0
-6496 2696 0
-6496 100 0
-6497 2697 0
-6497 101 0
-6498 2698 0
-6498 102 0
-6499 2699 0
-6499 103 0
-6500 2700 0
-6500 104 0
-6501 2701 0
-6501 105 0
-6502 2702 0
-6502 106 0
-6503 2703 0
-6503 107 0
-6504 2704 0
-6504 108 0
-6505 2705 0
-6505 109 0
-6506 2706 0
-6506 110 0
-6507 2707 0
-6507 111 0
-6508 2708 0
-6508 112 0
6495 6496 6497 6498 6499 6500 6501 6502 6503 6504 6505 6506 6507 6508 0
-6509 2695 0
-6509 113 0
-6510 2696 0
-6510 114 0
-6511 2697 0
-6511 115 0
-6512 2698 0
-6512 116 0
-6513 2699 0
-6513 117 0
-6514 2700 0
-6514 118 0
-6515 2701 0
-6515 119 0
-6516 2702 0
-6516 120 0
-6517 2703 0
-6517 121 0
-6518 2704 0
-6518 122 0
-6519 2705 0
-6519 123 0
-6520 2706 0
-6520 124 0
-6521 2707 0
-6521 125 0
-6522 2708 0
-6522 126 0
6509 6510 6511 6512 6513 6514 6515 6516 6517 6518 6519 6520 6521 6522 0
-6523 2695 0
-6523 127 0
-6524 2696 0
-6524 128 0
-6525 2697 0
-6525 129 0
-6526 2698 0
-6526 130 0
-6527 2699 0
-6527 131 0
-6528 2700 0
-6528 132 0
-6529 2701 0
-6529 133 0
-6530 2702 0
-6530 134 0
-6531 2703 0
-6531 135 0
-6532 2704 0
-6532 136 0
-6533 2705 0
-6533 137 0
-6534 2706 0
-6534 138 0
-6535 2707 0
-6535 139 0
-6536 2708 0
-6536 140 0
6523 6524 6525 6526 6527 6528 6529 6530 6531 6532 6533 6534 6535 6536 0
-6537 2695 0
-6537 141 0
-6538 2696 0
-6538 142 0
-6539 2697 0
-6539 143 0
-6540 2698 0
-6540 144 0
-6541 2699 0
-6541 145 0
-6542 2700 0
-6542 146 0
-6543 2701 0
-6543 147 0
-6544 2702 0
-6544 148 0
-6545 2703 0
-6545 149 0
-6546 2704 0
-6546 150 0
-6547 2705 0
-6547 151 0
-6548 2706 0
-6548 152 0
-6549 2707 0
-6549 153 0
-6550 2708 0
-6550 154 0
6537 6538 6539 6540 6541 6542 6543 6544 6545 6546 6547 6548 6549 6550 0
-6551 2695 0
-6551 155 0
-6552 2696 0
-6552 156 0
-6553 2697 0
-6553 157 0
-6554 2698 0
-6554 158 0
-6555 2699 0
-6555 159 0
-6556 2700 0
-6556 160 0
-6557 2701 0
-6557 161 0
-6558 2702 0
-6558 162 0
-6559 2703 0
-6559 163 0
-6560 2704 0
-6560 164 0
-6561 2705 0
-6561 165 0
-6562 2706 0
-6562 166 0
-6563 2707 0
-6563 167 0
-6564 2708 0
-6564 168 0
6551 6552 6553 6554 6555 6556 6557 6558 6559 6560 6561 6562 6563 6564 0
-6565 2748 0
-6565 71 0
-6566 2749 0
-6566 72 0
-6567 2750 0
-6567 73 0
-6568 2751 0
-6568 74 0
-6569 2752 0
-6569 75 0
-6570 2753 0
-6570 76 0
-6571 2754 0
-6571 77 0
-6572 2755 0
-6572 78 0
-6573 2756 0
-6573 79 0
-6574 2757 0
-6574 80 0
-6575 2758 0
-6575 81 0
-6576 2759 0
-6576 82 0
-6577 2760 0
-6577 83 0
-6578 2761 0
-6578 84 0
6565 6566 6567 6568 6569 6570 6571 6572 6573 6574 6575 6576 6577 6578 0
-6579 2748 0
-6579 85 0
-6580 2749 0
-6580 86 0
-6581 2750 0
-6581 87 0
-6582 2751 0
-6582 88 0
-6583 2752 0
-6583 89 0
-6584 2753 0
-6584 90 0
-6585 2754 0
-6585 91 0
-6586 2755 0
-6586 92 0
-6587 2756 0
-6587 93 0
-6588 2757 0
-6588 94 0
-6589 2758 0
-6589 95 0
-6590 2759 0
-6590 96 0
-6591 2760 0
-6591 97 0
-6592 2761 0
-6592 98 0
6579 6580 6581 6582 6583 6584 6585 6586 6587 6588 6589 6590 6591 6592 0
-6593 2748 0
-6593 99 0
-6594 2749 0
-6594 100 0
-6595 2750 0
-6595 101 0
-6596 2751 0
-6596 102 0
-6597 2752 0
-6597 103 0
-6598 2753 0
-6598 104 0
-6599 2754 0
-6599 105 0
-6600 2755 0
-6600 106 0
-6601 2756 0
-6601 107 0
-6602 2757 0
-6602 108 0
-6603 2758 0
-6603 109 0
-6604 2759 0
-6604 110 0
-6605 2760 0
-6605 111 0
-6606 2761 0
-6606 112 0
6593 6594 6595 6596 6597 6598 6599 6600 6601 6602 6603 6604 6605 6606 0
-6607 2748 0
-6607 113 0
-6608 2749 0
-6608 114 0
-6609 2750 0
-6609 115 0
-6610 2751 0
-6610 116 0
-6611 2752 0
-6611 117 0
-6612 2753 0
-6612 118 0
-6613 2754 0
-6613 119 0
-6614 2755 0
-6614 120 0
-6615 2756 0
-6615 121 0
-6616 2757 0
-6616 122 0
-6617 2758 0
-6617 123 0
-6618 2759 0
-6618 124 0
-6619 2760 0
-6619 125 0
-6620 2761 0
-6620 126 0
6607 6608 6609 6610 6611 6612 6613 6614 6615 6616 6617 6618 6619 6620 0
-6621 2748 0
-6621 127 0
-6622 2749 0
-6622 128 0
-6623 2750 0
-6623 129 0
-6624 2751 0
-6624 130 0
-6625 2752 0
-6625 131 0
-6626 2753 0
-6626 132 0
-6627 2754 0
-6627 133 0
-6628 2755 0
-6628 134 0
-6629 2756 0
-6629 135 0
-6630 2757 0
-6630 136 0
-6631 2758 0
-6631 137 0
-6632 2759 0
-6632 138 0
-6633 2760 0
-6633 139 0
-6634 2761 0
-6634 140 0
6621 6622 6623 6624 6625 6626 6627 6628 6629 6630 6631 6632 6633 6634 0
-6635 2748 0
-6635 141 0
-6636 2749 0
-6636 142 0
-6637 2750 0
-6637 143 0
-6638 2751 0
-6638 144 0
-6639 2752 0
-6639 145 0
-6640 2753 0
-6640 146 0
-6641 2754 0
-6641 147 0
-6642 2755 0
-6642 148 0
-6643 2756 0
-6643 149 0
-6644 2757 0
-6644 150 0
-6645 2758 0
-6645 151 0
-6646 2759 0
-6646 152 0
-6647 2760 0
-6647 153 0
-6648 2761 0
-6648 154 0
6635 6636 6637 6638 6639 6640 6641 6642 6643 6644 6645 6646 6647 6648 0
-6649 2748 0
-6649 155 0
-6650 2749 0
-6650 156 0
-6651 2750 0
-6651 157 0
-6652 2751 0
-6652 158 0
-6653 2752 0
-6653 159 0
-6654 2753 0
-6654 160 0
-6655 2754 0
-6655 161 0
-6656 2755 0
-6656 162 0
-6657 2756 0
-6657 163 0
-6658 2757 0
-6658 164 0
-6659 2758 0
-6659 165 0
-6660 2759 0
-6660 166 0
-6661 2760 0
-6661 167 0
-6662 2761 0
-6662 168 0
6649 6650 6651 6652 6653 6654 6655 6656 6657 6658 6659 6660 6661 6662 0
-6663 2801 0
-6663 85 0
-6664 2802 0
-6664 86 0
-6665 2803 0
-6665 87 0
-6666 2804 0
-6666 88 0
-6667 2805 0
-6667 89 0
-6668 2806 0
-6668 90 0
-6669 2807 0
-6669 91 0
-6670 2808 0
-6670 92 0
-6671 2809 0
-6671 93 0
-6672 2810 0
-6672 94 0
-6673 2811 0
-6673 95 0
-6674 2812 0
-6674 96 0
-6675 2813 0
-6675 97 0
-6676 2814 0
-6676 98 0
6663 6664 6665 6666 6667 6668 6669 6670 6671 6672 6673 6674 6675 6676 0
-6677 2801 0
-6677 99 0
-6678 2802 0
-6678 100 0
-6679 2803 0
-6679 101 0
-6680 2804 0
-6680 102 0
-6681 2805 0
-6681 103 0
-6682 2806 0
-6682 104 0
-6683 2807 0
-6683 105 0
-6684 2808 0
-6684 106 0
-6685 2809 0
-6685 107 0
-6686 2810 0
-6686 108 0
-6687 2811 0
-6687 109 0
-6688 2812 0
-6688 110 0
-6689 2813 0
-6689 111 0
-6690 2814 0
-6690 112 0
6677 6678 6679 6680 6681 6682 6683 6684 6685 6686 6687 6688 6689 6690 0
-6691 2801 0
-6691 113 0
-6692 2802 0
-6692 114 0
-6693 2803 0
-6693 115 0
-6694 2804 0
-6694 116 0
-6695 2805 0
-6695 117 0
-6696 2806 0
-6696 118 0
-6697 2807 0
-6697 119 0
-6698 2808 0
-6698 120 0
-6699 2809 0
-6699 121 0
-6700 2810 0
-6700 122 0
-6701 2811 0
-6701 123 0
-6702 2812 0
-6702 124 0
-6703 2813 0
-6703 125 0
-6704 2814 0
-6704 126 0
6691 6692 6693 6694 6695 6696 6697 6698 6699 6700 6701 6702 6703 6704 0
-6705 2801 0
-6705 127 0
-6706 2802 0
-6706 128 0
-6707 2803 0
-6707 129 0
-6708 2804 0
-6708 130 0
-6709 2805 0
-6709 131 0
-6710 2806 0
-6710 132 0
-6711 2807 0
-6711 133 0
-6712 2808 0
-6712 134 0
-6713 2809 0
-6713 135 0
-6714 2810 0
-6714 136 0
-6715 2811 0
-6715 137 0
-6716 2812 0
-6716 138 0
-6717 2813 0
-6717 139 0
-6718 2814 0
-6718 140 0
6705 6706 6707 6708 6709 6710 6711 6712 6713 6714 6715 6716 6717 6718 0
-6719 2801 0
-6719 141 0
-6720 2802 0
-6720 142 0
-6721 2803 0
-6721 143 0
-6722 2804 0
-6722 144 0
-6723 2805 0
-6723 145 0
-6724 2806 0
-6724 146 0
-6725 2807 0
-6725 147 0
-6726 2808 0
-6726 148 0
-6727 2809 0
-6727 149 0
-6728 2810 0
-6728 150 0
-6729 2811 0
-6729 151 0
-6730 2812 0
-6730 152 0
-6731 2813 0
-6731 153 0
-6732 2814 0
-6732 154 0
6719 6720 6721 6722 6723 6724 6725 6726 6727 6728 6729 6730 6731 6732 0
-6733 2801 0
-6733 155 0
-6734 2802 0
-6734 156 0
-6735 2803 0
-6735 157 0
-6736 2804 0
-6736 158 0
-6737 2805 0
-6737 159 0
-6738 2806 0
-6738 160 0
-6739 2807 0
-6739 161 0
-6740 2808 0
-6740 162 0
-6741 2809 0
-6741 163 0
-6742 2810 0
-6742 164 0
-6743 2811 0
-6743 165 0
-6744 2812 0
-6744 166 0
-6745 2813 0
-6745 167 0
-6746 2814 0
-6746 168 0
6733 6734 6735 6736 6737 6738 6739 6740 6741 6742 6743 6744 6745 6746 0
-6747 2854 0
-6747 99 0
-6748 2855 0
-6748 100 0
-6749 2856 0
-6749 101 0
-6750 2857 0
-6750 102 0
-6751 2858 0
-6751 103 0
-6752 2859 0
-6752 104 0
-6753 2860 0
-6753 105 0
-6754 2861 0
-6754 106 0
-6755 2862 0
-6755 107 0
-6756 2863 0
-6756 108 0
-6757 2864 0
-6757 109 0
-6758 2865 0
-6758 110 0
-6759 2866 0
-6759 111 0
-6760 2867 0
-6760 112 0
6747 6748 6749 6750 6751 6752 6753 6754 6755 6756 6757 6758 6759 6760 0
-6761 2854 0
-6761 113 0
-6762 2855 0
-6762 114 0
-6763 2856 0
-6763 115 0
-6764 2857 0
-6764 116 0
-6765 2858 0
-6765 117 0
-6766 2859 0
-6766 118 0
-6767 2860 0
-6767 119 0
-6768 2861 0
-6768 120 0
-6769 2862 0
-6769 121 0
-6770 2863 0
-6770 122 0
-6771 2864 0
-6771 123 0
-6772 2865 0
-6772 124 0
-6773 2866 0
-6773 125 0
-6774 2867 0
-6774 126 0
6761 6762 6763 6764 6765 6766 6767 6768 6769 6770 6771 6772 6773 6774 0
-6775 2854 0
-6775 127 0
-6776 2855 0
-6776 128 0
-6777 2856 0
-6777 129 0
-6778 2857 0
-6778 130 0
-6779 2858 0
-6779 131 0
-6780 2859 0
-6780 132 0
-6781 2860 0
-6781 133 0
-6782 2861 0
-6782 134 0
-6783 2862 0
-6783 135 0
-6784 2863 0
-6784 136 0
-6785 2864 0
-6785 137 0
-6786 2865 0
-6786 138 0
-6787 2866 0
-6787 139 0
-6788 2867 0
-6788 140 0
6775 6776 6777 6778 6779 6780 6781 6782 6783 6784 6785 6786 6787 6788 0
-6789 2854 0
-6789 141 0
-6790 2855 0
-6790 142 0
-6791 2856 0
-6791 143 0
-6792 2857 0
-6792 144 0
-6793 2858 0
-6793 145 0
-6794 2859 0
-6794 146 0
-6795 2860 0
-6795 147 0
-6796 2861 0
-6796 148 0
-6797 2862 0
-6797 149 0
-6798 2863 0
-6798 150 0
-6799 2864 0
-6799 151 0
-6800 2865 0
-6800 152 0
-6801 2866 0
-6801 153 0
-6802 2867 0
-6802 154 0
6789 6790 6791 6792 6793 6794 6795 6796 6797 6798 6799 6800 6801 6802 0
-6803 2854 0
-6803 155 0
-6804 2855 0
-6804 156 0
-6805 2856 0
-6805 157 0
-6806 2857 0
-6806 158 0
-6807 2858 0
-6807 159 0
-6808 2859 0
-6808 160 0
-6809 2860 0
-6809 161 0
-6810 2861 0
-6810 162 0
-6811 2862 0
-6811 163 0
-6812 2863 0
-6812 164 0
-6813 2864 0
-6813 165 0
-6814 2865 0
-6814 166 0
-6815 2866 0
-6815 167 0
-6816 2867 0
-6816 168 0
6803 6804 6805 6806 6807 6808 6809 6810 6811 6812 6813 6814 6815 6816 0
-6817 2907 0
-6817 113 0
-6818 2908 0
-6818 114 0
-6819 2909 0
-6819 115 0
-6820 2910 0
-6820 116 0
-6821 2911 0
-6821 117 0
-6822 2912 0
-6822 118 0
-6823 2913 0
-6823 119 0
-6824 2914 0
-6824 120 0
-6825 2915 0
-6825 121 0
-6826 2916 0
-6826 122 0
-6827 2917 0
-6827 123 0
-6828 2918 0
-6828 124 0
-6829 2919 0
-6829 125 0
-6830 2920 0
-6830 126 0
6817 6818 6819 6820 6821 6822 6823 6824 6825 6826 6827 6828 6829 6830 0
-6831 2907 0
-6831 127 0
-6832 2908 0
-6832 128 0
-6833 2909 0
-6833 129 0
-6834 2910 0
-6834 130 0
-6835 2911 0
-6835 131 0
-6836 2912 0
-6836 132 0
-6837 2913 0
-6837 133 0
-6838 2914 0
-6838 134 0
-6839 2915 0
-6839 135 0
-6840 2916 0
-6840 136 0
-6841 2917 0
-6841 137 0
-6842 2918 0
-6842 138 0
-6843 2919 0
-6843 139 0
-6844 2920 0
-6844 140 0
6831 6832 6833 6834 6835 6836 6837 6838 6839 6840 6841 6842 6843 6844 0
-6845 2907 0
-6845 141 0
-6846 2908 0
-6846 142 0
-6847 2909 0
-6847 143 0
-6848 2910 0
-6848 144 0
-6849 2911 0
-6849 145 0
-6850 2912 0
-6850 146 0
-6851 2913 0
-6851 147 0
-6852 2914 0
-6852 148 0
-6853 2915 0
-6853 149 0
-6854 2916 0
-6854 150 0
-6855 2917 0
-6855 151 0
-6856 2918 0
-6856 152 0
-6857 2919 0
-6857 153 0
-6858 2920 0
-6858 154 0
6845 6846 6847 6848 6849 6850 6851 6852 6853 6854 6855 6856 6857 6858 0
-6859 2907 0
-6859 155 0
-6860 2908 0
-6860 156 0
-6861 2909 0
-6861 157 0
-6862 2910 0
-6862 158 0
-6863 2911 0
-6863 159 0
-6864 2912 0
-6864 160 0
-6865 2913 0
-6865 161 0
-6866 2914 0
-6866 162 0
-6867 2915 0
-6867 163 0
-6868 2916 0
-6868 164 0
-6869 2917 0
-6869 165 0
-6870 2918 0
-6870 166 0
-6871 2919 0
-6871 167 0
-6872 2920 0
-6872 168 0
6859 6860 6861 6862 6863 6864 6865 6866 6867 6868 6869 6870 6871 6872 0
-6873 2960 0
-6873 127 0
-6874 2961 0
-6874 128 0
-6875 2962 0
-6875 129 0
-6876 2963 0
-6876 130 0
-6877 2964 0
-6877 131 0
-6878 2965 0
-6878 132 0
-6879 2966 0
-6879 133 0
-6880 2967 0
-6880 134 0
-6881 2968 0
-6881 135 0
-6882 2969 0
-6882 136 0
-6883 2970 0
-6883 137 0
-6884 2971 0
-6884 138 0
-6885 2972 0
-6885 139 0
-6886 2973 0
-6886 140 0
6873 6874 6875 6876 6877 6878 6879 6880 6881 6882 6883 6884 6885 6886 0
-6887 2960 0
-6887 141 0
-6888 2961 0
-6888 142 0
-6889 2962 0
-6889 143 0
-6890 2963 0
-6890 144 0
-6891 2964 0
-6891 145 0
-6892 2965 0
-6892 146 0
-6893 2966 0
-6893 147 0
-6894 2967 0
-6894 148 0
-6895 2968 0
-6895 149 0
-6896 2969 0
-6896 150 0
-6897 2970 0
-6897 151 0
-6898 2971 0
-6898 152 0
-6899 2972 0
-6899 153 0
-6900 2973 0
-6900 154 0
6887 6888 6889 6890 6891 6892 6893 6894 6895 6896 6897 6898 6899 6900 0
-6901 2960 0
-6901 155 0
-6902 2961 0
-6902 156 0
-6903 2962 0
-6903 157 0
-6904 2963 0
-6904 158 0
-6905 2964 0
-6905 159 0
-6906 2965 0
-6906 160 0
-6907 2966 0
-6907 161 0
-6908 2967 0
-6908 162 0
-6909 2968 0
-6909 163 0
-6910 2969 0
-6910 164 0
-6911 2970 0
-6911 165 0
-6912 2971 0
-6912 166 0
-6913 2972 0
-6913 167 0
-6914 2973 0
-6914 168 0
6901 6902 6903 6904 6905 6906 6907 6908 6909 6910 6911 6912 6913 6914 0
-6915 3013 0
-6915 141 0
-6916 3014 0
-6916 142 0
-6917 3015 0
-6917 143 0
-6918 3016 0
-6918 144 0
-6919 3017 0
-6919 145 0
-6920 3018 0
-6920 146 0
-6921 3019 0
-6921 147 0
-6922 3020 0
-6922 148 0
-6923 3021 0
-6923 149 0
-6924 3022 0
-6924 150 0
-6925 3023 0
-6925 151 0
-6926 3024 0
-6926 152 0
-6927 3025 0
-6927 153 0
-6928 3026 0
-6928 154 0
6915 6916 6917 6918 6919 6920 6921 6922 6923 6924 6925 6926 6927 6928 0
-6929 3013 0
-6929 155 0
-6930 3014 0
-6930 156 0
-6931 3015 0
-6931 157 0
-6932 3016 0
-6932 158 0
-6933 3017 0
-6933 159 0
-6934 3018 0
-6934 160 0
-6935 3019 0
-6935 161 0
-6936 3020 0
-6936 162 0
-6937 3021 0
-6937 163 0
-6938 3022 0
-6938 164 0
-6939 3023 0
-6939 165 0
-6940 3024 0
-6940 166 0
-6941 3025 0
-6941 167 0
-6942 3026 0
-6942 168 0
6929 6930 6931 6932 6933 6934 6935 6936 6937 6938 6939 6940 6941 6942 0
-6943 3066 0
-6943 155 0
-6944 3067 0
-6944 156 0
-6945 3068 0
-6945 157 0
-6946 3069 0
-6946 158 0
-6947 3070 0
-6947 159 0
-6948 3071 0
-6948 160 0
-6949 3072 0
-6949 161 0
-6950 3073 0
-6950 162 0
-6951 3074 0
-6951 163 0
-6952 3075 0
-6952 164 0
-6953 3076 0
-6953 165 0
-6954 3077 0
-6954 166 0
-6955 3078 0
-6955 167 0
-6956 3079 0
-6956 168 0
6943 6944 6945 6946 6947 6948 6949 6950 6951 6952 6953 6954 6955 6956 0
-6957 3172 0
-6957 57 0
-6958 3173 0
-6958 58 0
-6959 3174 0
-6959 59 0
-6960 3175 0
-6960 60 0
-6961 3176 0
-6961 61 0
-6962 3177 0
-6962 62 0
-6963 3178 0
-6963 63 0
-6964 3179 0
-6964 64 0
-6965 3180 0
-6965 65 0
-6966 3181 0
-6966 66 0
-6967 3182 0
-6967 67 0
-6968 3183 0
-6968 68 0
-6969 3184 0
-6969 69 0
-6970 3185 0
-6970 70 0
6957 6958 6959 6960 6961 6962 6963 6964 6965 6966 6967 6968 6969 6970 0
-6971 3172 0
-6971 71 0
-6972 3173 0
-6972 72 0
-6973 3174 0
-6973 73 0
-6974 3175 0
-6974 74 0
-6975 3176 0
-6975 75 0
-6976 3177 0
-6976 76 0
-6977 3178 0
-6977 77 0
-6978 3179 0
-6978 78 0
-6979 3180 0
-6979 79 0
-6980 3181 0
-6980 80 0
-6981 3182 0
-6981 81 0
-6982 3183 0
-6982 82 0
-6983 3184 0
-6983 83 0
-6984 3185 0
-6984 84 0
6971 6972 6973 6974 6975 6976 6977 6978 6979 6980 6981 6982 6983 6984 0
-6985 3172 0
-6985 85 0
-6986 3173 0
-6986 86 0
-6987 3174 0
-6987 87 0
-6988 3175 0
-6988 88 0
-6989 3176 0
-6989 89 0
-6990 3177 0
-6990 90 0
-6991 3178 0
-6991 91 0
-6992 3179 0
-6992 92 0
-6993 3180 0
-6993 93 0
-6994 3181 0
-6994 94 0
-6995 3182 0
-6995 95 0
-6996 3183 0
-6996 96 0
-6997 3184 0
-6997 97 0
-6998 3185 0
-6998 98 0
6985 6986 6987 6988 6989 6990 6991 6992 6993 6994 6995 6996 6997 6998 0
-6999 3172 0
-6999 99 0
-7000 3173 0
-7000 100 0
-7001 3174 0
-7001 101 0
-7002 3175 0
-7002 102 0
-7003 3176 0
-7003 103 0
-7004 3177 0
-7004 104 0
-7005 3178 0
-7005 105 0
-7006 3179 0
-7006 106 0
-7007 3180 0
-7007 107 0
-7008 3181 0
-7008 108 0
-7009 3182 0
-7009 109 0
-7010 3183 0
-7010 110 0
-7011 3184 0
-7011 111 0
-7012 3185 0
-7012 112 0
6999 7000 7001 7002 7003 7004 7005 7006 7007 7008 7009 7010 7011 7012 0
-7013 3172 0
-7013 113 0
-7014 3173 0
-7014 114 0
-7015 3174 0
-7015 115 0
-7016 3175 0
-7016 116 0
-7017 3176 0
-7017 117 0
-7018 3177 0
-7018 118 0
-7019 3178 0
-7019 119 0
-7020 3179 0
-7020 120 0
-7021 3180 0
-7021 121 0
-7022 3181 0
-7022 122 0
-7023 3182 0
-7023 123 0
-7024 3183 0
-7024 124 0
-7025 3184 0
-7025 125 0
-7026 3185 0
-7026 126 0
7013 7014 7015 7016 7017 7018 7019 7020 7021 7022 7023 7024 7025 7026 0
-7027 3172 0
-7027 127 0
-7028 3173 0
-7028 128 0
-7029 3174 0
-7029 129 0
-7030 3175 0
-7030 130 0
-7031 3176 0
-7031 131 0
-7032 3177 0
-7032 132 0
-7033 3178 0
-7033 133 0
-7034 3179 0
-7034 134 0
-7035 3180 0
-7035 135 0
-7036 3181 0
-7036 136 0
-7037 3182 0
-7037 137 0
-7038 3183 0
-7038 138 0
-7039 3184 0
-7039 139 0
-7040 3185 0
-7040 140 0
7027 7028 7029 7030 7031 7032 7033 7034 7035 7036 7037 7038 7039 7040 0
-7041 3172 0
-7041 141 0
-7042 3173 0
-7042 142 0
-7043 3174 0
-7043 143 0
-7044 3175 0
-7044 144 0
-7045 3176 0
-7045 145 0
-7046 3177 0
-7046 146 0
-7047 3178 0
-7047 147 0
-7048 3179 0
-7048 148 0
-7049 3180 0
-7049 149 0
-7050 3181 0
-7050 150 0
-7051 3182 0
-7051 151 0
-7052 3183 0
-7052 152 0
-7053 3184 0
-7053 153 0
-7054 3185 0
-7054 154 0
7041 7042 7043 7044 7045 7046 7047 7048 7049 7050 7051 7052 7053 7054 0
-7055 3172 0
-7055 155 0
-7056 3173 0
-7056 156 0
-7057 3174 0
-7057 157 0
-7058 3175 0
-7058 158 0
-7059 3176 0
-7059 159 0
-7060 3177 0
-7060 160 0
-7061 3178 0
-7061 161 0
-7062 3179 0
-7062 162 0
-7063 3180 0
-7063 163 0
-7064 3181 0
-7064 164 0
-7065 3182 0
-7065 165 0
-7066 3183 0
-7066 166 0
-7067 3184 0
-7067 167 0
-7068 3185 0
-7068 168 0
7055 7056 7057 7058 7059 7060 7061 7062 7063 7064 7065 7066 7067 7068 0
-7069 3225 0
-7069 71 0
-7070 3226 0
-7070 72 0
-7071 3227 0
-7071 73 0
-7072 3228 0
-7072 74 0
-7073 3229 0
-7073 75 0
-7074 3230 0
-7074 76 0
-7075 3231 0
-7075 77 0
-7076 3232 0
-7076 78 0
-7077 3233 0
-7077 79 0
-7078 3234 0
-7078 80 0
-7079 3235 0
-7079 81 0
-7080 3236 0
-7080 82 0
-7081 3237 0
-7081 83 0
-7082 3238 0
-7082 84 0
7069 7070 7071 7072 7073 7074 7075 7076 7077 7078 7079 7080 7081 7082 0
-7083 3225 0
-7083 85 0
-7084 3226 0
-7084 86 0
-7085 3227 0
-7085 87 0
-7086 3228 0
-7086 88 0
-7087 3229 0
-7087 89 0
-7088 3230 0
-7088 90 0
-7089 3231 0
-7089 91 0
-7090 3232 0
-7090 92 0
-7091 3233 0
-7091 93 0
-7092 3234 0
-7092 94 0
-7093 3235 0
-7093 95 0
-7094 3236 0
-7094 96 0
-7095 3237 0
-7095 97 0
-7096 3238 0
-7096 98 0
7083 7084 7085 7086 7087 7088 7089 7090 7091 7092 7093 7094 7095 7096 0
-7097 3225 0
-7097 99 0
-7098 3226 0
-7098 100 0
-7099 3227 0
-7099 101 0
-7100 3228 0
-7100 102 0
-7101 3229 0
-7101 103 0
-7102 3230 0
-7102 104 0
-7103 3231 0
-7103 105 0
-7104 3232 0
-7104 106 0
-7105 3233 0
-7105 107 0
-7106 3234 0
-7106 108 0
-7107 3235 0
-7107 109 0
-7108 3236 0
-7108 110 0
-7109 3237 0
-7109 111 0
-7110 3238 0
-7110 112 0
7097 7098 7099 7100 7101 7102 7103 7104 7105 7106 7107 7108 7109 7110 0
-7111 3225 0
-7111 113 0
-7112 3226 0
-7112 114 0
-7113 3227 0
-7113 115 0
-7114 3228 0
-7114 116 0
-7115 3229 0
-7115 117 0
-7116 3230 0
-7116 118 0
-7117 3231 0
-7117 119 0
-7118 3232 0
-7118 120 0
-7119 3233 0
-7119 121 0
-7120 3234 0
-7120 122 0
-7121 3235 0
-7121 123 0
-7122 3236 0
-7122 124 0
-7123 3237 0
-7123 125 0
-7124 3238 0
-7124 126 0
7111 7112 7113 7114 7115 7116 7117 7118 7119 7120 7121 7122 7123 7124 0
-7125 3225 0
-7125 127 0
-7126 3226 0
-7126 128 0
-7127 3227 0
-7127 129 0
-7128 3228 0
-7128 130 0
-7129 3229 0
-7129 131 0
-7130 3230 0
-7130 132 0
-7131 3231 0
-7131 133 0
-7132 3232 0
-7132 134 0
-7133 3233 0
-7133 135 0
-7134 3234 0
-7134 136 0
-7135 3235 0
-7135 137 0
-7136 3236 0
-7136 138 0
-7137 3237 0
-7137 139 0
-7138 3238 0
-7138 140 0
7125 7126 7127 7128 7129 7130 7131 7132 7133 7134 7135 7136 7137 7138 0
-7139 3225 0
-7139 141 0
-7140 3226 0
-7140 142 0
-7141 3227 0
-7141 143 0
-7142 3228 0
-7142 144 0
-7143 3229 0
-7143 145 0
-7144 3230 0
-7144 146 0
-7145 3231 0
-7145 147 0
-7146 3232 0
-7146 148 0
-7147 3233 0
-7147 149 0
-7148 3234 0
-7148 150 0
-7149 3235 0
-7149 151 0
-7150 3236 0
-7150 152 0
-7151 3237 0
-7151 153 0
-7152 3238 0
-7152 154 0
7139 7140 7141 7142 7143 7144 7145 7146 7147 7148 7149 7150 7151 7152 0
-7153 3225 0
-7153 155 0
-7154 3226 0
-7154 156 0
-7155 3227 0
-7155 157 0
-7156 3228 0
-7156 158 0
-7157 3229 0
-7157 159 0
-7158 3230 0
-7158 160 0
-7159 3231 0
-7159 161 0
-7160 3232 0
-7160 162 0
-7161 3233 0
-7161 163 0
-7162 3234 0
-7162 164 0
-7163 3235 0
-7163 165 0
-7164 3236 0
-7164 166 0
-7165 3237 0
-7165 167 0
-7166 3238 0
-7166 168 0
7153 7154 7155 7156 7157 7158 7159 7160 7161 7162 7163 7164 7165 7166 0
-7167 3278 0
-7167 85 0
-7168 3279 0
-7168 86 0
-7169 3280 0
-7169 87 0
-7170 3281 0
-7170 88 0
-7171 3282 0
-7171 89 0
-7172 3283 0
-7172 90 0
-7173 3284 0
-7173 91 0
-7174 3285 0
-7174 92 0
-7175 3286 0
-7175 93 0
-7176 3287 0
-7176 94 0
-7177 3288 0
-7177 95 0
-7178 3289 0
-7178 96 0
-7179 3290 0
-7179 97 0
-7180 3291 0
-7180 98 0
7167 7168 7169 7170 7171 7172 7173 7174 7175 7176 7177 7178 7179 7180 0
-7181 3278 0
-7181 99 0
-7182 3279 0
-7182 100 0
-7183 3280 0
-7183 101 0
-7184 3281 0
-7184 102 0
-7185 3282 0
-7185 103 0
-7186 3283 0
-7186 104 0
-7187 3284 0
-7187 105 0
-7188 3285 0
-7188 106 0
-7189 3286 0
-7189 107 0
-7190 3287 0
-7190 108 0
-7191 3288 0
-7191 109 0
-7192 3289 0
-7192 110 0
-7193 3290 0
-7193 111 0
-7194 3291 0
-7194 112 0
7181 7182 7183 7184 7185 7186 7187 7188 7189 7190 7191 7192 7193 7194 0
-7195 3278 0
-7195 113 0
-7196 3279 0
-7196 114 0
-7197 3280 0
-7197 115 0
-7198 3281 0
-7198 116 0
-7199 3282 0
-7199 117 0
-7200 3283 0
-7200 118 0
-7201 3284 0
-7201 119 0
-7202 3285 0
-7202 120 0
-7203 3286 0
-7203 121 0
-7204 3287 0
-7204 122 0
-7205 3288 0
-7205 123 0
-7206 3289 0
-7206 124 0
-7207 3290 0
-7207 125 0
-7208 3291 0
-7208 126 0
7195 7196 7197 7198 7199 7200 7201 7202 7203 7204 7205 7206 7207 7208 0
-7209 3278 0
-7209 127 0
-7210 3279 0
-7210 128 0
-7211 3280 0
-7211 129 0
-7212 3281 0
-7212 130 0
-7213 3282 0
-7213 131 0
-7214 3283 0
-7214 132 0
-7215 3284 0
-7215 133 0
-7216 3285 0
-7216 134 0
-7217 3286 0
-7217 135 0
-7218 3287 0
-7218 136 0
-7219 3288 0
-7219 137 0
-7220 3289 0
-7220 138 0
-7221 3290 0
-7221 139 0
-7222 3291 0
-7222 140 0
7209 7210 7211 7212 7213 7214 7215 7216 7217 7218 7219 7220 7221 7222 0
-7223 3278 0
-7223 141 0
-7224 3279 0
-7224 142 0
-7225 3280 0
-7225 143 0
-7226 3281 0
-7226 144 0
-7227 3282 0
-7227 145 0
-7228 3283 0
-7228 146 0
-7229 3284 0
-7229 147 0
-7230 3285 0
-7230 148 0
-7231 3286 0
-7231 149 0
-7232 3287 0
-7232 150 0
-7233 3288 0
-7233 151 0
-7234 3289 0
-7234 152 0
-7235 3290 0
-7235 153 0
-7236 3291 0
-7236 154 0
7223 7224 7225 7226 7227 7228 7229 7230 7231 7232 7233 7234 7235 7236 0
-7237 3278 0
-7237 155 0
-7238 3279 0
-7238 156 0
-7239 3280 0
-7239 157 0
-7240 3281 0
-7240 158 0
-7241 3282 0
-7241 159 0
-7242 3283 0
-7242 160 0
-7243 3284 0
-7243 161 0
-7244 3285 0
-7244 162 0
-7245 3286 0
-7245 163 0
-7246 3287 0
-7246 164 0
-7247 3288 0
-7247 165 0
-7248 3289 0
-7248 166 0
-7249 3290 0
-7249 167 0
-7250 3291 0
-7250 168 0
7237 7238 7239 7240 7241 7242 7243 7244 7245 7246 7247 7248 7249 7250 0
-7251 3331 0
-7251 99 0
-7252 3332 0
-7252 100 0
-7253 3333 0
-7253 101 0
-7254 3334 0
-7254 102 0
-7255 3335 0
-7255 103 0
-7256 3336 0
-7256 104 0
-7257 3337 0
-7257 105 0
-7258 3338 0
-7258 106 0
-7259 3339 0
-7259 107 0
-7260 3340 0
-7260 108 0
-7261 3341 0
-7261 109 0
-7262 3342 0
-7262 110 0
-7263 3343 0
-7263 111 0
-7264 3344 0
-7264 112 0
7251 7252 7253 7254 7255 7256 7257 7258 7259 7260 7261 7262 7263 7264 0
-7265 3331 0
-7265 113 0
-7266 3332 0
-7266 114 0
-7267 3333 0
-7267 115 0
-7268 3334 0
-7268 116 0
-7269 3335 0
-7269 117 0
-7270 3336 0
-7270 118 0
-7271 3337 0
-7271 119 0
-7272 3338 0
-7272 120 0
-7273 3339 0
-7273 121 0
-7274 3340 0
-7274 122 0
-7275 3341 0
-7275 123 0
-7276 3342 0
-7276 124 0
-7277 3343 0
-7277 125 0
-7278 3344 0
-7278 126 0
7265 7266 7267 7268 7269 7270 7271 7272 7273 7274 7275 7276 7277 7278 0
-7279 3331 0
-7279 127 0
-7280 3332 0
-7280 128 0
-7281 3333 0
-7281 129 0
-7282 3334 0
-7282 130 0
-7283 3335 0
-7283 131 0
-7284 3336 0
-7284 132 0
-7285 3337 0
-7285 133 0
-7286 3338 0
-7286 134 0
-7287 3339 0
-7287 135 0
-7288 3340 0
-7288 136 0
-7289 3341 0
-7289 137 0
-7290 3342 0
-7290 138 0
-7291 3343 0
-7291 139 0
-7292 3344 0
-7292 140 0
7279 7280 7281 7282 7283 7284 7285 7286 7287 7288 7289 7290 7291 7292 0
-7293 3331 0
-7293 141 0
-7294 3332 0
-7294 142 0
-7295 3333 0
-7295 143 0
-7296 3334 0
-7296 144 0
-7297 3335 0
-7297 145 0
-7298 3336 0
-7298 146 0
-7299 3337 0
-7299 147 0
-7300 3338 0
-7300 148 0
-7301 3339 0
-7301 149 0
-7302 3340 0
-7302 150 0
-7303 3341 0
-7303 151 0
-7304 3342 0
-7304 152 0
-7305 3343 0
-7305 153 0
-7306 3344 0
-7306 154 0
7293 7294 7295 7296 7297 7298 7299 7300 7301 7302 7303 7304 7305 7306 0
-7307 3331 0
-7307 155 0
-7308 3332 0
-7308 156 0
-7309 3333 0
-7309 157 0
-7310 3334 0
-7310 158 0
-7311 3335 0
-7311 159 0
-7312 3336 0
-7312 160 0
-7313 3337 0
-7313 161 0
-7314 3338 0
-7314 162 0
-7315 3339 0
-7315 163 0
-7316 3340 0
-7316 164 0
-7317 3341 0
-7317 165 0
-7318 3342 0
-7318 166 0
-7319 3343 0
-7319 167 0
-7320 3344 0
-7320 168 0
7307 7308 7309 7310 7311 7312 7313 7314 7315 7316 7317 7318 7319 7320 0
-7321 3384 0
-7321 113 0
-7322 3385 0
-7322 114 0
-7323 3386 0
-7323 115 0
-7324 3387 0
-7324 116 0
-7325 3388 0
-7325 117 0
-7326 3389 0
-7326 118 0
-7327 3390 0
-7327 119 0
-7328 3391 0
-7328 120 0
-7329 3392 0
-7329 121 0
-7330 3393 0
-7330 122 0
-7331 3394 0
-7331 123 0
-7332 3395 0
-7332 124 0
-7333 3396 0
-7333 125 0
-7334 3397 0
-7334 126 0
7321 7322 7323 7324 7325 7326 7327 7328 7329 7330 7331 7332 7333 7334 0
-7335 3384 0
-7335 127 0
-7336 3385 0
-7336 128 0
-7337 3386 0
-7337 129 0
-7338 3387 0
-7338 130 0
-7339 3388 0
-7339 131 0
-7340 3389 0
-7340 132 0
-7341 3390 0
-7341 133 0
-7342 3391 0
-7342 134 0
-7343 3392 0
-7343 135 0
-7344 3393 0
-7344 136 0
-7345 3394 0
-7345 137 0
-7346 3395 0
-7346 138 0
-7347 3396 0
-7347 139 0
-7348 3397 0
-7348 140 0
7335 7336 7337 7338 7339 7340 7341 7342 7343 7344 7345 7346 7347 7348 0
-7349 3384 0
-7349 141 0
-7350 3385 0
-7350 142 0
-7351 3386 0
-7351 143 0
-7352 3387 0
-7352 144 0
-7353 3388 0
-7353 145 0
-7354 3389 0
-7354 146 0
-7355 3390 0
-7355 147 0
-7356 3391 0
-7356 148 0
-7357 3392 0
-7357 149 0
-7358 3393 0
-7358 150 0
-7359 3394 0
-7359 151 0
-7360 3395 0
-7360 152 0
-7361 3396 0
-7361 153 0
-7362 3397 0
-7362 154 0
7349 7350 7351 7352 7353 7354 7355 7356 7357 7358 7359 7360 7361 7362 0
-7363 3384 0
-7363 155 0
-7364 3385 0
-7364 156 0
-7365 3386 0
-7365 157 0
-7366 3387 0
-7366 158 0
-7367 3388 0
-7367 159 0
-7368 3389 0
-7368 160 0
-7369 3390 0
-7369 161 0
-7370 3391 0
-7370 162 0
-7371 3392 0
-7371 163 0
-7372 3393 0
-7372 164 0
-7373 3394 0
-7373 165 0
-7374 3395 0
-7374 166 0
-7375 3396 0
-7375 167 0
-7376 3397 0
-7376 168 0
7363 7364 7365 7366 7367 7368 7369 7370 7371 7372 7373 7374 7375 7376 0
-7377 3437 0
-7377 127 0
-7378 3438 0
-7378 128 0
-7379 3439 0
-7379 129 0
-7380 3440 0
-7380 130 0
-7381 3441 0
-7381 131 0
-7382 3442 0
-7382 132 0
-7383 3443 0
-7383 133 0
-7384 3444 0
-7384 134 0
-7385 3445 0
-7385 135 0
-7386 3446 0
-7386 136 0
-7387 3447 0
-7387 137 0
-7388 3448 0
-7388 138 0
-7389 3449 0
-7389 139 0
-7390 3450 0
-7390 140 0
7377 7378 7379 7380 7381 7382 7383 7384 7385 7386 7387 7388 7389 7390 0
-7391 3437 0
-7391 141 0
-7392 3438 0
-7392 142 0
-7393 3439 0
-7393 143 0
-7394 3440 0
-7394 144 0
-7395 3441 0
-7395 145 0
-7396 3442 0
-7396 146 0
-7397 3443 0
-7397 147 0
-7398 3444 0
-7398 148 0
-7399 3445 0
-7399 149 0
-7400 3446 0
-7400 150 0
-7401 3447 0
-7401 151 0
-7402 3448 0
-7402 152 0
-7403 3449 0
-7403 153 0
-7404 3450 0
-7404 154 0
7391 7392 7393 7394 7395 7396 7397 7398 7399 7400 7401 7402 7403 7404 0
-7405 3437 0
-7405 155 0
-7406 3438 0
-7406 156 0
-7407 3439 0
-7407 157 0
-7408 3440 0
-7408 158 0
-7409 3441 0
-7409 159 0
-7410 3442 0
-7410 160 0
-7411 3443 0
-7411 161 0
-7412 3444 0
-7412 162 0
-7413 3445 0
-7413 163 0
-7414 3446 0
-7414 164 0
-7415 3447 0
-7415 165 0
-7416 3448 0
-7416 166 0
-7417 3449 0
-7417 167 0
-7418 3450 0
-7418 168 0
7405 7406 7407 7408 7409 7410 7411 7412 7413 7414 7415 7416 7417 7418 0
-7419 3490 0
-7419 141 0
-7420 3491 0
-7420 142 0
-7421 3492 0
-7421 143 0
-7422 3493 0
-7422 144 0
-7423 3494 0
-7423 145 0
-7424 3495 0
-7424 146 0
-7425 3496 0
-7425 147 0
-7426 3497 0
-7426 148 0
-7427 3498 0
-7427 149 0
-7428 3499 0
-7428 150 0
-7429 3500 0
-7429 151 0
-7430 3501 0
-7430 152 0
-7431 3502 0
-7431 153 0
-7432 3503 0
-7432 154 0
7419 7420 7421 7422 7423 7424 7425 7426 7427 7428 7429 7430 7431 7432 0
-7433 3490 0
-7433 155 0
-7434 3491 0
-7434 156 0
-7435 3492 0
-7435 157 0
-7436 3493 0
-7436 158 0
-7437 3494 0
-7437 159 0
-7438 3495 0
-7438 160 0
-7439 3496 0
-7439 161 0
-7440 3497 0
-7440 162 0
-7441 3498 0
-7441 163 0
-7442 3499 0
-7442 164 0
-7443 3500 0
-7443 165 0
-7444 3501 0
-7444 166 0
-7445 3502 0
-7445 167 0
-7446 3503 0
-7446 168 0
7433 7434 7435 7436 7437 7438 7439 7440 7441 7442 7443 7444 7445 7446 0
-7447 3543 0
-7447 155 0
-7448 3544 0
-7448 156 0
-7449 3545 0
-7449 157 0
-7450 3546 0
-7450 158 0
-7451 3547 0
-7451 159 0
-7452 3548 0
-7452 160 0
-7453 3549 0
-7453 161 0
-7454 3550 0
-7454 162 0
-7455 3551 0
-7455 163 0
-7456 3552 0
-7456 164 0
-7457 3553 0
-7457 165 0
-7458 3554 0
-7458 166 0
-7459 3555 0
-7459 167 0
-7460 3556 0
-7460 168 0
7447 7448 7449 7450 7451 7452 7453 7454 7455 7456 7457 7458 7459 7460 0
-7461 3649 0
-7461 71 0
-7462 3650 0
-7462 72 0
-7463 3651 0
-7463 73 0
-7464 3652 0
-7464 74 0
-7465 3653 0
-7465 75 0
-7466 3654 0
-7466 76 0
-7467 3655 0
-7467 77 0
-7468 3656 0
-7468 78 0
-7469 3657 0
-7469 79 0
-7470 3658 0
-7470 80 0
-7471 3659 0
-7471 81 0
-7472 3660 0
-7472 82 0
-7473 3661 0
-7473 83 0
-7474 3662 0
-7474 84 0
7461 7462 7463 7464 7465 7466 7467 7468 7469 7470 7471 7472 7473 7474 0
-7475 3649 0
-7475 85 0
-7476 3650 0
-7476 86 0
-7477 3651 0
-7477 87 0
-7478 3652 0
-7478 88 0
-7479 3653 0
-7479 89 0
-7480 3654 0
-7480 90 0
-7481 3655 0
-7481 91 0
-7482 3656 0
-7482 92 0
-7483 3657 0
-7483 93 0
-7484 3658 0
-7484 94 0
-7485 3659 0
-7485 95 0
-7486 3660 0
-7486 96 0
-7487 3661 0
-7487 97 0
-7488 3662 0
-7488 98 0
7475 7476 7477 7478 7479 7480 7481 7482 7483 7484 7485 7486 7487 7488 0
-7489 3649 0
-7489 99 0
-7490 3650 0
-7490 100 0
-7491 3651 0
-7491 101 0
-7492 3652 0
-7492 102 0
-7493 3653 0
-7493 103 0
-7494 3654 0
-7494 104 0
-7495 3655 0
-7495 105 0
-7496 3656 0
-7496 106 0
-7497 3657 0
-7497 107 0
-7498 3658 0
-7498 108 0
-7499 3659 0
-7499 109 0
-7500 3660 0
-7500 110 0
-7501 3661 0
-7501 111 0
-7502 3662 0
-7502 112 0
7489 7490 7491 7492 7493 7494 7495 7496 7497 7498 7499 7500 7501 7502 0
-7503 3649 0
-7503 113 0
-7504 3650 0
-7504 114 0
-7505 3651 0
-7505 115 0
-7506 3652 0
-7506 116 0
-7507 3653 0
-7507 117 0
-7508 3654 0
-7508 118 0
-7509 3655 0
-7509 119 0
-7510 3656 0
-7510 120 0
-7511 3657 0
-7511 121 0
-7512 3658 0
-7512 122 0
-7513 3659 0
-7513 123 0
-7514 3660 0
-7514 124 0
-7515 3661 0
-7515 125 0
-7516 3662 0
-7516 126 0
7503 7504 7505 7506 7507 7508 7509 7510 7511 7512 7513 7514 7515 7516 0
-7517 3649 0
-7517 127 0
-7518 3650 0
-7518 128 0
-7519 3651 0
-7519 129 0
-7520 3652 0
-7520 130 0
-7521 3653 0
-7521 131 0
-7522 3654 0
-7522 132 0
-7523 3655 0
-7523 133 0
-7524 3656 0
-7524 134 0
-7525 3657 0
-7525 135 0
-7526 3658 0
-7526 136 0
-7527 3659 0
-7527 137 0
-7528 3660 0
-7528 138 0
-7529 3661 0
-7529 139 0
-7530 3662 0
-7530 140 0
7517 7518 7519 7520 7521 7522 7523 7524 7525 7526 7527 7528 7529 7530 0
-7531 3649 0
-7531 141 0
-7532 3650 0
-7532 142 0
-7533 3651 0
-7533 143 0
-7534 3652 0
-7534 144 0
-7535 3653 0
-7535 145 0
-7536 3654 0
-7536 146 0
-7537 3655 0
-7537 147 0
-7538 3656 0
-7538 148 0
-7539 3657 0
-7539 149 0
-7540 3658 0
-7540 150 0
-7541 3659 0
-7541 151 0
-7542 3660 0
-7542 152 0
-7543 3661 0
-7543 153 0
-7544 3662 0
-7544 154 0
7531 7532 7533 7534 7535 7536 7537 7538 7539 7540 7541 7542 7543 7544 0
-7545 3649 0
-7545 155 0
-7546 3650 0
-7546 156 0
-7547 3651 0
-7547 157 0
-7548 3652 0
-7548 158 0
-7549 3653 0
-7549 159 0
-7550 3654 0
-7550 160 0
-7551 3655 0
-7551 161 0
-7552 3656 0
-7552 162 0
-7553 3657 0
-7553 163 0
-7554 3658 0
-7554 164 0
-7555 3659 0
-7555 165 0
-7556 3660 0
-7556 166 0
-7557 3661 0
-7557 167 0
-7558 3662 0
-7558 168 0
7545 7546 7547 7548 7549 7550 7551 7552 7553 7554 7555 7556 7557 7558 0
-7559 3702 0
-7559 85 0
-7560 3703 0
-7560 86 0
-7561 3704 0
-7561 87 0
-7562 3705 0
-7562 88 0
-7563 3706 0
-7563 89 0
-7564 3707 0
-7564 90 0
-7565 3708 0
-7565 91 0
-7566 3709 0
-7566 92 0
-7567 3710 0
-7567 93 0
-7568 3711 0
-7568 94 0
-7569 3712 0
-7569 95 0
-7570 3713 0
-7570 96 0
-7571 3714 0
-7571 97 0
-7572 3715 0
-7572 98 0
7559 7560 7561 7562 7563 7564 7565 7566 7567 7568 7569 7570 7571 7572 0
-7573 3702 0
-7573 99 0
-7574 3703 0
-7574 100 0
-7575 3704 0
-7575 101 0
-7576 3705 0
-7576 102 0
-7577 3706 0
-7577 103 0
-7578 3707 0
-7578 104 0
-7579 3708 0
-7579 105 0
-7580 3709 0
-7580 106 0
-7581 3710 0
-7581 107 0
-7582 3711 0
-7582 108 0
-7583 3712 0
-7583 109 0
-7584 3713 0
-7584 110 0
-7585 3714 0
-7585 111 0
-7586 3715 0
-7586 112 0
7573 7574 7575 7576 7577 7578 7579 7580 7581 7582 7583 7584 7585 7586 0
-7587 3702 0
-7587 113 0
-7588 3703 0
-7588 114 0
-7589 3704 0
-7589 115 0
-7590 3705 0
-7590 116 0
-7591 3706 0
-7591 117 0
-7592 3707 0
-7592 118 0
-7593 3708 0
-7593 119 0
-7594 3709 0
-7594 120 0
-7595 3710 0
-7595 121 0
-7596 3711 0
-7596 122 0
-7597 3712 0
-7597 123 0
-7598 3713 0
-7598 124 0
-7599 3714 0
-7599 125 0
-7600 3715 0
-7600 126 0
7587 7588 7589 7590 7591 7592 7593 7594 7595 7596 7597 7598 7599 7600 0
-7601 3702 0
-7601 127 0
-7602 3703 0
-7602 128 0
-7603 3704 0
-7603 129 0
-7604 3705 0
-7604 130 0
-7605 3706 0
-7605 131 0
-7606 3707 0
-7606 132 0
-7607 3708 0
-7607 133 0
-7608 3709 0
-7608 134 0
-7609 3710 0
-7609 135 0
-7610 3711 0
-7610 136 0
-7611 3712 0
-7611 137 0
-7612 3713 0
-7612 138 0
-7613 3714 0
-7613 139 0
-7614 3715 0
-7614 140 0
7601 7602 7603 7604 7605 7606 7607 7608 7609 7610 7611 7612 7613 7614 0
-7615 3702 0
-7615 141 0
-7616 3703 0
-7616 142 0
-7617 3704 0
-7617 143 0
-7618 3705 0
-7618 144 0
-7619 3706 0
-7619 145 0
-7620 3707 0
-7620 146 0
-7621 3708 0
-7621 147 0
-7622 3709 0
-7622 148 0
-7623 3710 0
-7623 149 0
-7624 3711 0
-7624 150 0
-7625 3712 0
-7625 151 0
-7626 3713 0
-7626 152 0
-7627 3714 0
-7627 153 0
-7628 3715 0
-7628 154 0
7615 7616 7617 7618 7619 7620 7621 7622 7623 7624 7625 7626 7627 7628 0
-7629 3702 0
-7629 155 0
-7630 3703 0
-7630 156 0
-7631 3704 0
-7631 157 0
-7632 3705 0
-7632 158 0
-7633 3706 0
-7633 159 0
-7634 3707 0
-7634 160 0
-7635 3708 0
-7635 161 0
-7636 3709 0
-7636 162 0
-7637 3710 0
-7637 163 0
-7638 3711 0
-7638 164 0
-7639 3712 0
-7639 165 0
-7640 3713 0
-7640 166 0
-7641 3714 0
-7641 167 0
-7642 3715 0
-7642 168 0
7629 7630 7631 7632 7633 7634 7635 7636 7637 7638 7639 7640 7641 7642 0
-7643 3755 0
-7643 99 0
-7644 3756 0
-7644 100 0
-7645 3757 0
-7645 101 0
-7646 3758 0
-7646 102 0
-7647 3759 0
-7647 103 0
-7648 3760 0
-7648 104 0
-7649 3761 0
-7649 105 0
-7650 3762 0
-7650 106 0
-7651 3763 0
-7651 107 0
-7652 3764 0
-7652 108 0
-7653 3765 0
-7653 109 0
-7654 3766 0
-7654 110 0
-7655 3767 0
-7655 111 0
-7656 3768 0
-7656 112 0
7643 7644 7645 7646 7647 7648 7649 7650 7651 7652 7653 7654 7655 7656 0
-7657 3755 0
-7657 113 0
-7658 3756 0
-7658 114 0
-7659 3757 0
-7659 115 0
-7660 3758 0
-7660 116 0
-7661 3759 0
-7661 117 0
-7662 3760 0
-7662 118 0
-7663 3761 0
-7663 119 0
-7664 3762 0
-7664 120 0
-7665 3763 0
-7665 121 0
-7666 3764 0
-7666 122 0
-7667 3765 0
-7667 123 0
-7668 3766 0
-7668 124 0
-7669 3767 0
-7669 125 0
-7670 3768 0
-7670 126 0
7657 7658 7659 7660 7661 7662 7663 7664 7665 7666 7667 7668 7669 7670 0
-7671 3755 0
-7671 127 0
-7672 3756 0
-7672 128 0
-7673 3757 0
-7673 129 0
-7674 3758 0
-7674 130 0
-7675 3759 0
-7675 131 0
-7676 3760 0
-7676 132 0
-7677 3761 0
-7677 133 0
-7678 3762 0
-7678 134 0
-7679 3763 0
-7679 135 0
-7680 3764 0
-7680 136 0
-7681 3765 0
-7681 137 0
-7682 3766 0
-7682 138 0
-7683 3767 0
-7683 139 0
-7684 3768 0
-7684 140 0
7671 7672 7673 7674 7675 7676 7677 7678 7679 7680 7681 7682 7683 7684 0
-7685 3755 0
-7685 141 0
-7686 3756 0
-7686 142 0
-7687 3757 0
-7687 143 0
-7688 3758 0
-7688 144 0
-7689 3759 0
-7689 145 0
-7690 3760 0
-7690 146 0
-7691 3761 0
-7691 147 0
-7692 3762 0
-7692 148 0
-7693 3763 0
-7693 149 0
-7694 3764 0
-7694 150 0
-7695 3765 0
-7695 151 0
-7696 3766 0
-7696 152 0
-7697 3767 0
-7697 153 0
-7698 3768 0
-7698 154 0
7685 7686 7687 7688 7689 7690 7691 7692 7693 7694 7695 7696 7697 7698 0
-7699 3755 0
-7699 155 0
-7700 3756 0
-7700 156 0
-7701 3757 0
-7701 157 0
-7702 3758 0
-7702 158 0
-7703 3759 0
-7703 159 0
-7704 3760 0
-7704 160 0
-7705 3761 0
-7705 161 0
-7706 3762 0
-7706 162 0
-7707 3763 0
-7707 163 0
-7708 3764 0
-7708 164 0
-7709 3765 0
-7709 165 0
-7710 3766 0
-7710 166 0
-7711 3767 0
-7711 167 0
-7712 3768 0
-7712 168 0
7699 7700 7701 7702 7703 7704 7705 7706 7707 7708 7709 7710 7711 7712 0
-7713 3808 0
-7713 113 0
-7714 3809 0
-7714 114 0
-7715 3810 0
-7715 115 0
-7716 3811 0
-7716 116 0
-7717 3812 0
-7717 117 0
-7718 3813 0
-7718 118 0
-7719 3814 0
-7719 119 0
-7720 3815 0
-7720 120 0
-7721 3816 0
-7721 121 0
-7722 3817 0
-7722 122 0
-7723 3818 0
-7723 123 0
-7724 3819 0
-7724 124 0
-7725 3820 0
-7725 125 0
-7726 3821 0
-7726 126 0
7713 7714 7715 7716 7717 7718 7719 7720 7721 7722 7723 7724 7725 7726 0
-7727 3808 0
-7727 127 0
-7728 3809 0
-7728 128 0
-7729 3810 0
-7729 129 0
-7730 3811 0
-7730 130 0
-7731 3812 0
-7731 131 0
-7732 3813 0
-7732 132 0
-7733 3814 0
-7733 133 0
-7734 3815 0
-7734 134 0
-7735 3816 0
-7735 135 0
-7736 3817 0
-7736 136 0
-7737 3818 0
-7737 137 0
-7738 3819 0
-7738 138 0
-7739 3820 0
-7739 139 0
-7740 3821 0
-7740 140 0
7727 7728 7729 7730 7731 7732 7733 7734 7735 7736 7737 7738 7739 7740 0
-7741 3808 0
-7741 141 0
-7742 3809 0
-7742 142 0
-7743 3810 0
-7743 143 0
-7744 3811 0
-7744 144 0
-7745 3812 0
-7745 145 0
-7746 3813 0
-7746 146 0
-7747 3814 0
-7747 147 0
-7748 3815 0
-7748 148 0
-7749 3816 0
-7749 149 0
-7750 3817 0
-7750 150 0
-7751 3818 0
-7751 151 0
-7752 3819 0
-7752 152 0
-7753 3820 0
-7753 153 0
-7754 3821 0
-7754 154 0
7741 7742 7743 7744 7745 7746 7747 7748 7749 7750 7751 7752 7753 7754 0
-7755 3808 0
-7755 155 0
-7756 3809 0
-7756 156 0
-7757 3810 0
-7757 157 0
-7758 3811 0
-7758 158 0
-7759 3812 0
-7759 159 0
-7760 3813 0
-7760 160 0
-7761 3814 0
-7761 161 0
-7762 3815 0
-7762 162 0
-7763 3816 0
-7763 163 0
-7764 3817 0
-7764 164 0
-7765 3818 0
-7765 165 0
-7766 3819 0
-7766 166 0
-7767 3820 0
-7767 167 0
-7768 3821 0
-7768 168 0
7755 7756 7757 7758 7759 7760 7761 7762 7763 7764 7765 7766 7767 7768 0
-7769 3861 0
-7769 127 0
-7770 3862 0
-7770 128 0
-7771 3863 0
-7771 129 0
-7772 3864 0
-7772 130 0
-7773 3865 0
-7773 131 0
-7774 3866 0
-7774 132 0
-7775 3867 0
-7775 133 0
-7776 3868 0
-7776 134 0
-7777 3869 0
-7777 135 0
-7778 3870 0
-7778 136 0
-7779 3871 0
-7779 137 0
-7780 3872 0
-7780 138 0
-7781 3873 0
-7781 139 0
-7782 3874 0
-7782 140 0
7769 7770 7771 7772 7773 7774 7775 7776 7777 7778 7779 7780 7781 7782 0
-7783 3861 0
-7783 141 0
-7784 3862 0
-7784 142 0
-7785 3863 0
-7785 143 0
-7786 3864 0
-7786 144 0
-7787 3865 0
-7787 145 0
-7788 3866 0
-7788 146 0
-7789 3867 0
-7789 147 0
-7790 3868 0
-7790 148 0
-7791 3869 0
-7791 149 0
-7792 3870 0
-7792 150 0
-7793 3871 0
-7793 151 0
-7794 3872 0
-7794 152 0
-7795 3873 0
-7795 153 0
-7796 3874 0
-7796 154 0
7783 7784 7785 7786 7787 7788 7789 7790 7791 7792 7793 7794 7795 7796 0
-7797 3861 0
-7797 155 0
-7798 3862 0
-7798 156 0
-7799 3863 0
-7799 157 0
-7800 3864 0
-7800 158 0
-7801 3865 0
-7801 159 0
-7802 3866 0
-7802 160 0
-7803 3867 0
-7803 161 0
-7804 3868 0
-7804 162 0
-7805 3869 0
-7805 163 0
-7806 3870 0
-7806 164 0
-7807 3871 0
-7807 165 0
-7808 3872 0
-7808 166 0
-7809 3873 0
-7809 167 0
-7810 3874 0
-7810 168 0
7797 7798 7799 7800 7801 7802 7803 7804 7805 7806 7807 7808 7809 7810 0
-7811 3914 0
-7811 141 0
-7812 3915 0
-7812 142 0
-7813 3916 0
-7813 143 0
-7814 3917 0
-7814 144 0
-7815 3918 0
-7815 145 0
-7816 3919 0
-7816 146 0
-7817 3920 0
-7817 147 0
-7818 3921 0
-7818 148 0
-7819 3922 0
-7819 149 0
-7820 3923 0
-7820 150 0
-7821 3924 0
-7821 151 0
-7822 3925 0
-7822 152 0
-7823 3926 0
-7823 153 0
-7824 3927 0
-7824 154 0
7811 7812 7813 7814 7815 7816 7817 7818 7819 7820 7821 7822 7823 7824 0
-7825 3914 0
-7825 155 0
-7826 3915 0
-7826 156 0
-7827 3916 0
-7827 157 0
-7828 3917 0
-7828 158 0
-7829 3918 0
-7829 159 0
-7830 3919 0
-7830 160 0
-7831 3920 0
-7831 161 0
-7832 3921 0
-7832 162 0
-7833 3922 0
-7833 163 0
-7834 3923 0
-7834 164 0
-7835 3924 0
-7835 165 0
-7836 3925 0
-7836 166 0
-7837 3926 0
-7837 167 0
-7838 3927 0
-7838 168 0
7825 7826 7827 7828 7829 7830 7831 7832 7833 7834 7835 7836 7837 7838 0
-7839 3967 0
-7839 155 0
-7840 3968 0
-7840 156 0
-7841 3969 0
-7841 157 0
-7842 3970 0
-7842 158 0
-7843 3971 0
-7843 159 0
-7844 3972 0
-7844 160 0
-7845 3973 0
-7845 161 0
-7846 3974 0
-7846 162 0
-7847 3975 0
-7847 163 0
-7848 3976 0
-7848 164 0
-7849 3977 0
-7849 165 0
-7850 3978 0
-7850 166 0
-7851 3979 0
-7851 167 0
-7852 3980 0
-7852 168 0
7839 7840 7841 7842 7843 7844 7845 7846 7847 7848 7849 7850 7851 7852 0
-7853 4073 0
-7853 85 0
-7854 4074 0
-7854 86 0
-7855 4075 0
-7855 87 0
-7856 4076 0
-7856 88 0
-7857 4077 0
-7857 89 0
-7858 4078 0
-7858 90 0
-7859 4079 0
-7859 91 0
-7860 4080 0
-7860 92 0
-7861 4081 0
-7861 93 0
-7862 4082 0
-7862 94 0
-7863 4083 0
-7863 95 0
-7864 4084 0
-7864 96 0
-7865 4085 0
-7865 97 0
-7866 4086 0
-7866 98 0
7853 7854 7855 7856 7857 7858 7859 7860 7861 7862 7863 7864 7865 7866 0
-7867 4073 0
-7867 99 0
-7868 4074 0
-7868 100 0
-7869 4075 0
-7869 101 0
-7870 4076 0
-7870 102 0
-7871 4077 0
-7871 103 0
-7872 4078 0
-7872 104 0
-7873 4079 0
-7873 105 0
-7874 4080 0
-7874 106 0
-7875 4081 0
-7875 107 0
-7876 4082 0
-7876 108 0
-7877 4083 0
-7877 109 0
-7878 4084 0
-7878 110 0
-7879 4085 0
-7879 111 0
-7880 4086 0
-7880 112 0
7867 7868 7869 7870 7871 7872 7873 7874 7875 7876 7877 7878 7879 7880 0
-7881 4073 0
-7881 113 0
-7882 4074 0
-7882 114 0
-7883 4075 0
-7883 115 0
-7884 4076 0
-7884 116 0
-7885 4077 0
-7885 117 0
-7886 4078 0
-7886 118 0
-7887 4079 0
-7887 119 0
-7888 4080 0
-7888 120 0
-7889 4081 0
-7889 121 0
-7890 4082 0
-7890 122 0
-7891 4083 0
-7891 123 0
-7892 4084 0
-7892 124 0
-7893 4085 0
-7893 125 0
-7894 4086 0
-7894 126 0
7881 7882 7883 7884 7885 7886 7887 7888 7889 7890 7891 7892 7893 7894 0
-7895 4073 0
-7895 127 0
-7896 4074 0
-7896 128 0
-7897 4075 0
-7897 129 0
-7898 4076 0
-7898 130 0
-7899 4077 0
-7899 131 0
-7900 4078 0
-7900 132 0
-7901 4079 0
-7901 133 0
-7902 4080 0
-7902 134 0
-7903 4081 0
-7903 135 0
-7904 4082 0
-7904 136 0
-7905 4083 0
-7905 137 0
-7906 4084 0
-7906 138 0
-7907 4085 0
-7907 139 0
-7908 4086 0
-7908 140 0
7895 7896 7897 7898 7899 7900 7901 7902 7903 7904 7905 7906 7907 7908 0
-7909 4073 0
-7909 141 0
-7910 4074 0
-7910 142 0
-7911 4075 0
-7911 143 0
-7912 4076 0
-7912 144 0
-7913 4077 0
-7913 145 0
-7914 4078 0
-7914 146 0
-7915 4079 0
-7915 147 0
-7916 4080 0
-7916 148 0
-7917 4081 0
-7917 149 0
-7918 4082 0
-7918 150 0
-7919 4083 0
-7919 151 0
-7920 4084 0
-7920 152 0
-7921 4085 0
-7921 153 0
-7922 4086 0
-7922 154 0
7909 7910 7911 7912 7913 7914 7915 7916 7917 7918 7919 7920 7921 7922 0
-7923 4073 0
-7923 155 0
-7924 4074 0
-7924 156 0
-7925 4075 0
-7925 157 0
-7926 4076 0
-7926 158 0
-7927 4077 0
-7927 159 0
-7928 4078 0
-7928 160 0
-7929 4079 0
-7929 161 0
-7930 4080 0
-7930 162 0
-7931 4081 0
-7931 163 0
-7932 4082 0
-7932 164 0
-7933 4083 0
-7933 165 0
-7934 4084 0
-7934 166 0
-7935 4085 0
-7935 167 0
-7936 4086 0
-7936 168 0
7923 7924 7925 7926 7927 7928 7929 7930 7931 7932 7933 7934 7935 7936 0
-7937 4126 0
-7937 99 0
-7938 4127 0
-7938 100 0
-7939 4128 0
-7939 101 0
-7940 4129 0
-7940 102 0
-7941 4130 0
-7941 103 0
-7942 4131 0
-7942 104 0
-7943 4132 0
-7943 105 0
-7944 4133 0
-7944 106 0
-7945 4134 0
-7945 107 0
-7946 4135 0
-7946 108 0
-7947 4136 0
-7947 109 0
-7948 4137 0
-7948 110 0
-7949 4138 0
-7949 111 0
-7950 4139 0
-7950 112 0
7937 7938 7939 7940 7941 7942 7943 7944 7945 7946 7947 7948 7949 7950 0
-7951 4126 0
-7951 113 0
-7952 4127 0
-7952 114 0
-7953 4128 0
-7953 115 0
-7954 4129 0
-7954 116 0
-7955 4130 0
-7955 117 0
-7956 4131 0
-7956 118 0
-7957 4132 0
-7957 119 0
-7958 4133 0
-7958 120 0
-7959 4134 0
-7959 121 0
-7960 4135 0
-7960 122 0
-7961 4136 0
-7961 123 0
-7962 4137 0
-7962 124 0
-7963 4138 0
-7963 125 0
-7964 4139 0
-7964 126 0
7951 7952 7953 7954 7955 7956 7957 7958 7959 7960 7961 7962 7963 7964 0
-7965 4126 0
-7965 127 0
-7966 4127 0
-7966 128 0
-7967 4128 0
-7967 129 0
-7968 4129 0
-7968 130 0
-7969 4130 0
-7969 131 0
-7970 4131 0
-7970 132 0
-7971 4132 0
-7971 133 0
-7972 4133 0
-7972 134 0
-7973 4134 0
-7973 135 0
-7974 4135 0
-7974 136 0
-7975 4136 0
-7975 137 0
-7976 4137 0
-7976 138 0
-7977 4138 0
-7977 139 0
-7978 4139 0
-7978 140 0
7965 7966 7967 7968 7969 7970 7971 7972 7973 7974 7975 7976 7977 7978 0
-7979 4126 0
-7979 141 0
-7980 4127 0
-7980 142 0
-7981 4128 0
-7981 143 0
-7982 4129 0
-7982 144 0
-7983 4130 0
-7983 145 0
-7984 4131 0
-7984 146 0
-7985 4132 0
-7985 147 0
-7986 4133 0
-7986 148 0
-7987 4134 0
-7987 149 0
-7988 4135 0
-7988 150 0
-7989 4136 0
-7989 151 0
-7990 4137 0
-7990 152 0
-7991 4138 0
-7991 153 0
-7992 4139 0
-7992 154 0
7979 7980 7981 7982 7983 7984 7985 7986 7987 7988 7989 7990 7991 7992 0
-7993 4126 0
-7993 155 0
-7994 4127 0
-7994 156 0
-7995 4128 0
-7995 157 0
-7996 4129 0
-7996 158 0
-7997 4130 0
-7997 159 0
-7998 4131 0
-7998 160 0
-7999 4132 0
-7999 161 0
-8000 4133 0
-8000 162 0
-8001 4134 0
-8001 163 0
-8002 4135 0
-8002 164 0
-8003 4136 0
-8003 165 0
-8004 4137 0
-8004 166 0
-8005 4138 0
-8005 167 0
-8006 4139 0
-8006 168 0
7993 7994 7995 7996 7997 7998 7999 8000 8001 8002 8003 8004 8005 8006 0
-8007 4179 0
-8007 113 0
-8008 4180 0
-8008 114 0
-8009 4181 0
-8009 115 0
-8010 4182 0
-8010 116 0
-8011 4183 0
-8011 117 0
-8012 4184 0
-8012 118 0
-8013 4185 0
-8013 119 0
-8014 4186 0
-8014 120 0
-8015 4187 0
-8015 121 0
-8016 4188 0
-8016 122 0
-8017 4189 0
-8017 123 0
-8018 4190 0
-8018 124 0
-8019 4191 0
-8019 125 0
-8020 4192 0
-8020 126 0
8007 8008 8009 8010 8011 8012 8013 8014 8015 8016 8017 8018 8019 8020 0
-8021 4179 0
-8021 127 0
-8022 4180 0
-8022 128 0
-8023 4181 0
-8023 129 0
-8024 4182 0
-8024 130 0
-8025 4183 0
-8025 131 0
-8026 4184 0
-8026 132 0
-8027 4185 0
-8027 133 0
-8028 4186 0
-8028 134 0
-8029 4187 0
-8029 135 0
-8030 4188 0
-8030 136 0
-8031 4189 0
-8031 137 0
-8032 4190 0
-8032 138 0
-8033 4191 0
-8033 139 0
-8034 4192 0
-8034 140 0
8021 8022 8023 8024 8025 8026 8027 8028 8029 8030 8031 8032 8033 8034 0
-8035 4179 0
-8035 141 0
-8036 4180 0
-8036 142 0
-8037 4181 0
-8037 143 0
-8038 4182 0
-8038 144 0
-8039 4183 0
-8039 145 0
-8040 4184 0
-8040 146 0
-8041 4185 0
-8041 147 0
-8042 4186 0
-8042 148 0
-8043 4187 0
-8043 149 0
-8044 4188 0
-8044 150 0
-8045 4189 0
-8045 151 0
-8046 4190 0
-8046 152 0
-8047 4191 0
-8047 153 0
-8048 4192 0
-8048 154 0
8035 8036 8037 8038 8039 8040 8041 8042 8043 8044 8045 8046 8047 8048 0
-8049 4179 0
-8049 155 0
-8050 4180 0
-8050 156 0
-8051 4181 0
-8051 157 0
-8052 4182 0
-8052 158 0
-8053 4183 0
-8053 159 0
-8054 4184 0
-8054 160 0
-8055 4185 0
-8055 161 0
-8056 4186 0
-8056 162 0
-8057 4187 0
-8057 163 0
-8058 4188 0
-8058 164 0
-8059 4189 0
-8059 165 0
-8060 4190 0
-8060 166 0
-8061 4191 0
-8061 167 0
-8062 4192 0
-8062 168 0
8049 8050 8051 8052 8053 8054 8055 8056 8057 8058 8059 8060 8061 8062 0
-8063 4232 0
-8063 127 0
-8064 4233 0
-8064 128 0
-8065 4234 0
-8065 129 0
-8066 4235 0
-8066 130 0
-8067 4236 0
-8067 131 0
-8068 4237 0
-8068 132 0
-8069 4238 0
-8069 133 0
-8070 4239 0
-8070 134 0
-8071 4240 0
-8071 135 0
-8072 4241 0
-8072 136 0
-8073 4242 0
-8073 137 0
-8074 4243 0
-8074 138 0
-8075 4244 0
-8075 139 0
-8076 4245 0
-8076 140 0
8063 8064 8065 8066 8067 8068 8069 8070 8071 8072 8073 8074 8075 8076 0
-8077 4232 0
-8077 141 0
-8078 4233 0
-8078 142 0
-8079 4234 0
-8079 143 0
-8080 4235 0
-8080 144 0
-8081 4236 0
-8081 145 0
-8082 4237 0
-8082 146 0
-8083 4238 0
-8083 147 0
-8084 4239 0
-8084 148 0
-8085 4240 0
-8085 149 0
-8086 4241 0
-8086 150 0
-8087 4242 0
-8087 151 0
-8088 4243 0
-8088 152 0
-8089 4244 0
-8089 153 0
-8090 4245 0
-8090 154 0
8077 8078 8079 8080 8081 8082 8083 8084 8085 8086 8087 8088 8089 8090 0
-8091 4232 0
-8091 155 0
-8092 4233 0
-8092 156 0
-8093 4234 0
-8093 157 0
-8094 4235 0
-8094 158 0
-8095 4236 0
-8095 159 0
-8096 4237 0
-8096 160 0
-8097 4238 0
-8097 161 0
-8098 4239 0
-8098 162 0
-8099 4240 0
-8099 163 0
-8100 4241 0
-8100 164 0
-8101 4242 0
-8101 165 0
-8102 4243 0
-8102 166 0
-8103 4244 0
-8103 167 0
-8104 4245 0
-8104 168 0
8091 8092 8093 8094 8095 8096 8097 8098 8099 8100 8101 8102 8103 8104 0
-8105 4285 0
-8105 141 0
-8106 4286 0
-8106 142 0
-8107 4287 0
-8107 143 0
-8108 4288 0
-8108 144 0
-8109 4289 0
-8109 145 0
-8110 4290 0
-8110 146 0
-8111 4291 0
-8111 147 0
-8112 4292 0
-8112 148 0
-8113 4293 0
-8113 149 0
-8114 4294 0
-8114 150 0
-8115 4295 0
-8115 151 0
-8116 4296 0
-8116 152 0
-8117 4297 0
-8117 153 0
-8118 4298 0
-8118 154 0
8105 8106 8107 8108 8109 8110 8111 8112 8113 8114 8115 8116 8117 8118 0
-8119 4285 0
-8119 155 0
-8120 4286 0
-8120 156 0
-8121 4287 0
-8121 157 0
-8122 4288 0
-8122 158 0
-8123 4289 0
-8123 159 0
-8124 4290 0
-8124 160 0
-8125 4291 0
-8125 161 0
-8126 4292 0
-8126 162 0
-8127 4293 0
-8127 163 0
-8128 4294 0
-8128 164 0
-8129 4295 0
-8129 165 0
-8130 4296 0
-8130 166 0
-8131 4297 0
-8131 167 0
-8132 4298 0
-8132 168 0
8119 8120 8121 8122 8123 8124 8125 8126 8127 8128 8129 8130 8131 8132 0
-8133 4338 0
-8133 155 0
-8134 4339 0
-8134 156 0
-8135 4340 0
-8135 157 0
-8136 4341 0
-8136 158 0
-8137 4342 0
-8137 159 0
-8138 4343 0
-8138 160 0
-8139 4344 0
-8139 161 0
-8140 4345 0
-8140 162 0
-8141 4346 0
-8141 163 0
-8142 4347 0
-8142 164 0
-8143 4348 0
-8143 165 0
-8144 4349 0
-8144 166 0
-8145 4350 0
-8145 167 0
-8146 4351 0
-8146 168 0
8133 8134 8135 8136 8137 8138 8139 8140 8141 8142 8143 8144 8145 8146 0
-8147 4444 0
-8147 99 0
-8148 4445 0
-8148 100 0
-8149 4446 0
-8149 101 0
-8150 4447 0
-8150 102 0
-8151 4448 0
-8151 103 0
-8152 4449 0
-8152 104 0
-8153 4450 0
-8153 105 0
-8154 4451 0
-8154 106 0
-8155 4452 0
-8155 107 0
-8156 4453 0
-8156 108 0
-8157 4454 0
-8157 109 0
-8158 4455 0
-8158 110 0
-8159 4456 0
-8159 111 0
-8160 4457 0
-8160 112 0
8147 8148 8149 8150 8151 8152 8153 8154 8155 8156 8157 8158 8159 8160 0
-8161 4444 0
-8161 113 0
-8162 4445 0
-8162 114 0
-8163 4446 0
-8163 115 0
-8164 4447 0
-8164 116 0
-8165 4448 0
-8165 117 0
-8166 4449 0
-8166 118 0
-8167 4450 0
-8167 119 0
-8168 4451 0
-8168 120 0
-8169 4452 0
-8169 121 0
-8170 4453 0
-8170 122 0
-8171 4454 0
-8171 123 0
-8172 4455 0
-8172 124 0
-8173 4456 0
-8173 125 0
-8174 4457 0
-8174 126 0
8161 8162 8163 8164 8165 8166 8167 8168 8169 8170 8171 8172 8173 8174 0
-8175 4444 0
-8175 127 0
-8176 4445 0
-8176 128 0
-8177 4446 0
-8177 129 0
-8178 4447 0
-8178 130 0
-8179 4448 0
-8179 131 0
-8180 4449 0
-8180 132 0
-8181 4450 0
-8181 133 0
-8182 4451 0
-8182 134 0
-8183 4452 0
-8183 135 0
-8184 4453 0
-8184 136 0
-8185 4454 0
-8185 137 0
-8186 4455 0
-8186 138 0
-8187 4456 0
-8187 139 0
-8188 4457 0
-8188 140 0
8175 8176 8177 8178 8179 8180 8181 8182 8183 8184 8185 8186 8187 8188 0
-8189 4444 0
-8189 141 0
-8190 4445 0
-8190 142 0
-8191 4446 0
-8191 143 0
-8192 4447 0
-8192 144 0
-8193 4448 0
-8193 145 0
-8194 4449 0
-8194 146 0
-8195 4450 0
-8195 147 0
-8196 4451 0
-8196 148 0
-8197 4452 0
-8197 149 0
-8198 4453 0
-8198 150 0
-8199 4454 0
-8199 151 0
-8200 4455 0
-8200 152 0
-8201 4456 0
-8201 153 0
-8202 4457 0
-8202 154 0
8189 8190 8191 8192 8193 8194 8195 8196 8197 8198 8199 8200 8201 8202 0
-8203 4444 0
-8203 155 0
-8204 4445 0
-8204 156 0
-8205 4446 0
-8205 157 0
-8206 4447 0
-8206 158 0
-8207 4448 0
-8207 159 0
-8208 4449 0
-8208 160 0
-8209 4450 0
-8209 161 0
-8210 4451 0
-8210 162 0
-8211 4452 0
-8211 163 0
-8212 4453 0
-8212 164 0
-8213 4454 0
-8213 165 0
-8214 4455 0
-8214 166 0
-8215 4456 0
-8215 167 0
-8216 4457 0
-8216 168 0
8203 8204 8205 8206 8207 8208 8209 8210 8211 8212 8213 8214 8215 8216 0
-8217 4497 0
-8217 113 0
-8218 4498 0
-8218 114 0
-8219 4499 0
-8219 115 0
-8220 4500 0
-8220 116 0
-8221 4501 0
-8221 117 0
-8222 4502 0
-8222 118 0
-8223 4503 0
-8223 119 0
-8224 4504 0
-8224 120 0
-8225 4505 0
-8225 121 0
-8226 4506 0
-8226 122 0
-8227 4507 0
-8227 123 0
-8228 4508 0
-8228 124 0
-8229 4509 0
-8229 125 0
-8230 4510 0
-8230 126 0
8217 8218 8219 8220 8221 8222 8223 8224 8225 8226 8227 8228 8229 8230 0
-8231 4497 0
-8231 127 0
-8232 4498 0
-8232 128 0
-8233 4499 0
-8233 129 0
-8234 4500 0
-8234 130 0
-8235 4501 0
-8235 131 0
-8236 4502 0
-8236 132 0
-8237 4503 0
-8237 133 0
-8238 4504 0
-8238 134 0
-8239 4505 0
-8239 135 0
-8240 4506 0
-8240 136 0
-8241 4507 0
-8241 137 0
-8242 4508 0
-8242 138 0
-8243 4509 0
-8243 139 0
-8244 4510 0
-8244 140 0
8231 8232 8233 8234 8235 8236 8237 8238 8239 8240 8241 8242 8243 8244 0
-8245 4497 0
-8245 141 0
-8246 4498 0
-8246 142 0
-8247 4499 0
-8247 143 0
-8248 4500 0
-8248 144 0
-8249 4501 0
-8249 145 0
-8250 4502 0
-8250 146 0
-8251 4503 0
-8251 147 0
-8252 4504 0
-8252 148 0
-8253 4505 0
-8253 149 0
-8254 4506 0
-8254 150 0
-8255 4507 0
-8255 151 0
-8256 4508 0
-8256 152 0
-8257 4509 0
-8257 153 0
-8258 4510 0
-8258 154 0
8245 8246 8247 8248 8249 8250 8251 8252 8253 8254 8255 8256 8257 8258 0
-8259 4497 0
-8259 155 0
-8260 4498 0
-8260 156 0
-8261 4499 0
-8261 157 0
-8262 4500 0
-8262 158 0
-8263 4501 0
-8263 159 0
-8264 4502 0
-8264 160 0
-8265 4503 0
-8265 161 0
-8266 4504 0
-8266 162 0
-8267 4505 0
-8267 163 0
-8268 4506 0
-8268 164 0
-8269 4507 0
-8269 165 0
-8270 4508 0
-8270 166 0
-8271 4509 0
-8271 167 0
-8272 4510 0
-8272 168 0
8259 8260 8261 8262 8263 8264 8265 8266 8267 8268 8269 8270 8271 8272 0
-8273 4550 0
-8273 127 0
-8274 4551 0
-8274 128 0
-8275 4552 0
-8275 129 0
-8276 4553 0
-8276 130 0
-8277 4554 0
-8277 131 0
-8278 4555 0
-8278 132 0
-8279 4556 0
-8279 133 0
-8280 4557 0
-8280 134 0
-8281 4558 0
-8281 135 0
-8282 4559 0
-8282 136 0
-8283 4560 0
-8283 137 0
-8284 4561 0
-8284 138 0
-8285 4562 0
-8285 139 0
-8286 4563 0
-8286 140 0
8273 8274 8275 8276 8277 8278 8279 8280 8281 8282 8283 8284 8285 8286 0
-8287 4550 0
-8287 141 0
-8288 4551 0
-8288 142 0
-8289 4552 0
-8289 143 0
-8290 4553 0
-8290 144 0
-8291 4554 0
-8291 145 0
-8292 4555 0
-8292 146 0
-8293 4556 0
-8293 147 0
-8294 4557 0
-8294 148 0
-8295 4558 0
-8295 149 0
-8296 4559 0
-8296 150 0
-8297 4560 0
-8297 151 0
-8298 4561 0
-8298 152 0
-8299 4562 0
-8299 153 0
-8300 4563 0
-8300 154 0
8287 8288 8289 8290 8291 8292 8293 8294 8295 8296 8297 8298 8299 8300 0
-8301 4550 0
-8301 155 0
-8302 4551 0
-8302 156 0
-8303 4552 0
-8303 157 0
-8304 4553 0
-8304 158 0
-8305 4554 0
-8305 159 0
-8306 4555 0
-8306 160 0
-8307 4556 0
-8307 161 0
-8308 4557 0
-8308 162 0
-8309 4558 0
-8309 163 0
-8310 4559 0
-8310 164 0
-8311 4560 0
-8311 165 0
-8312 4561 0
-8312 166 0
-8313 4562 0
-8313 167 0
-8314 4563 0
-8314 168 0
8301 8302 8303 8304 8305 8306 8307 8308 8309 8310 8311 8312 8313 8314 0
-8315 4603 0
-8315 141 0
-8316 4604 0
-8316 142 0
-8317 4605 0
-8317 143 0
-8318 4606 0
-8318 144 0
-8319 4607 0
-8319 145 0
-8320 4608 0
-8320 146 0
-8321 4609 0
-8321 147 0
-8322 4610 0
-8322 148 0
-8323 4611 0
-8323 149 0
-8324 4612 0
-8324 150 0
-8325 4613 0
-8325 151 0
-8326 4614 0
-8326 152 0
-8327 4615 0
-8327 153 0
-8328 4616 0
-8328 154 0
8315 8316 8317 8318 8319 8320 8321 8322 8323 8324 8325 8326 8327 8328 0
-8329 4603 0
-8329 155 0
-8330 4604 0
-8330 156 0
-8331 4605 0
-8331 157 0
-8332 4606 0
-8332 158 0
-8333 4607 0
-8333 159 0
-8334 4608 0
-8334 160 0
-8335 4609 0
-8335 161 0
-8336 4610 0
-8336 162 0
-8337 4611 0
-8337 163 0
-8338 4612 0
-8338 164 0
-8339 4613 0
-8339 165 0
-8340 4614 0
-8340 166 0
-8341 4615 0
-8341 167 0
-8342 4616 0
-8342 168 0
8329 8330 8331 8332 8333 8334 8335 8336 8337 8338 8339 8340 8341 8342 0
-8343 4656 0
-8343 155 0
-8344 4657 0
-8344 156 0
-8345 4658 0
-8345 157 0
-8346 4659 0
-8346 158 0
-8347 4660 0
-8347 159 0
-8348 4661 0
-8348 160 0
-8349 4662 0
-8349 161 0
-8350 4663 0
-8350 162 0
-8351 4664 0
-8351 163 0
-8352 4665 0
-8352 164 0
-8353 4666 0
-8353 165 0
-8354 4667 0
-8354 166 0
-8355 4668 0
-8355 167 0
-8356 4669 0
-8356 168 0
8343 8344 8345 8346 8347 8348 8349 8350 8351 8352 8353 8354 8355 8356 0
-8357 4762 0
-8357 113 0
-8358 4763 0
-8358 114 0
-8359 4764 0
-8359 115 0
-8360 4765 0
-8360 116 0
-8361 4766 0
-8361 117 0
-8362 4767 0
-8362 118 0
-8363 4768 0
-8363 119 0
-8364 4769 0
-8364 120 0
-8365 4770 0
-8365 121 0
-8366 4771 0
-8366 122 0
-8367 4772 0
-8367 123 0
-8368 4773 0
-8368 124 0
-8369 4774 0
-8369 125 0
-8370 4775 0
-8370 126 0
8357 8358 8359 8360 8361 8362 8363 8364 8365 8366 8367 8368 8369 8370 0
-8371 4762 0
-8371 127 0
-8372 4763 0
-8372 128 0
-8373 4764 0
-8373 129 0
-8374 4765 0
-8374 130 0
-8375 4766 0
-8375 131 0
-8376 4767 0
-8376 132 0
-8377 4768 0
-8377 133 0
-8378 4769 0
-8378 134 0
-8379 4770 0
-8379 135 0
-8380 4771 0
-8380 136 0
-8381 4772 0
-8381 137 0
-8382 4773 0
-8382 138 0
-8383 4774 0
-8383 139 0
-8384 4775 0
-8384 140 0
8371 8372 8373 8374 8375 8376 8377 8378 8379 8380 8381 8382 8383 8384 0
-8385 4762 0
-8385 141 0
-8386 4763 0
-8386 142 0
-8387 4764 0
-8387 143 0
-8388 4765 0
-8388 144 0
-8389 4766 0
-8389 145 0
-8390 4767 0
-8390 146 0
-8391 4768 0
-8391 147 0
-8392 4769 0
-8392 148 0
-8393 4770 0
-8393 149 0
-8394 4771 0
-8394 150 0
-8395 4772 0
-8395 151 0
-8396 4773 0
-8396 152 0
-8397 4774 0
-8397 153 0
-8398 4775 0
-8398 154 0
8385 8386 8387 8388 8389 8390 8391 8392 8393 8394 8395 8396 8397 8398 0
-8399 4762 0
-8399 155 0
-8400 4763 0
-8400 156 0
-8401 4764 0
-8401 157 0
-8402 4765 0
-8402 158 0
-8403 4766 0
-8403 159 0
-8404 4767 0
-8404 160 0
-8405 4768 0
-8405 161 0
-8406 4769 0
-8406 162 0
-8407 4770 0
-8407 163 0
-8408 4771 0
-8408 164 0
-8409 4772 0
-8409 165 0
-8410 4773 0
-8410 166 0
-8411 4774 0
-8411 167 0
-8412 4775 0
-8412 168 0
8399 8400 8401 8402 8403 8404 8405 8406 8407 8408 8409 8410 8411 8412 0
-8413 4815 0
-8413 127 0
-8414 4816 0
-8414 128 0
-8415 4817 0
-8415 129 0
-8416 4818 0
-8416 130 0
-8417 4819 0
-8417 131 0
-8418 4820 0
-8418 132 0
-8419 4821 0
-8419 133 0
-8420 4822 0
-8420 134 0
-8421 4823 0
-8421 135 0
-8422 4824 0
-8422 136 0
-8423 4825 0
-8423 137 0
-8424 4826 0
-8424 138 0
-8425 4827 0
-8425 139 0
-8426 4828 0
-8426 140 0
8413 8414 8415 8416 8417 8418 8419 8420 8421 8422 8423 8424 8425 8426 0
-8427 4815 0
-8427 141 0
-8428 4816 0
-8428 142 0
-8429 4817 0
-8429 143 0
-8430 4818 0
-8430 144 0
-8431 4819 0
-8431 145 0
-8432 4820 0
-8432 146 0
-8433 4821 0
-8433 147 0
-8434 4822 0
-8434 148 0
-8435 4823 0
-8435 149 0
-8436 4824 0
-8436 150 0
-8437 4825 0
-8437 151 0
-8438 4826 0
-8438 152 0
-8439 4827 0
-8439 153 0
-8440 4828 0
-8440 154 0
8427 8428 8429 8430 8431 8432 8433 8434 8435 8436 8437 8438 8439 8440 0
-8441 4815 0
-8441 155 0
-8442 4816 0
-8442 156 0
-8443 4817 0
-8443 157 0
-8444 4818 0
-8444 158 0
-8445 4819 0
-8445 159 0
-8446 4820 0
-8446 160 0
-8447 4821 0
-8447 161 0
-8448 4822 0
-8448 162 0
-8449 4823 0
-8449 163 0
-8450 4824 0
-8450 164 0
-8451 4825 0
-8451 165 0
-8452 4826 0
-8452 166 0
-8453 4827 0
-8453 167 0
-8454 4828 0
-8454 168 0
8441 8442 8443 8444 8445 8446 8447 8448 8449 8450 8451 8452 8453 8454 0
-8455 4868 0
-8455 141 0
-8456 4869 0
-8456 142 0
-8457 4870 0
-8457 143 0
-8458 4871 0
-8458 144 0
-8459 4872 0
-8459 145 0
-8460 4873 0
-8460 146 0
-8461 4874 0
-8461 147 0
-8462 4875 0
-8462 148 0
-8463 4876 0
-8463 149 0
-8464 4877 0
-8464 150 0
-8465 4878 0
-8465 151 0
-8466 4879 0
-8466 152 0
-8467 4880 0
-8467 153 0
-8468 4881 0
-8468 154 0
8455 8456 8457 8458 8459 8460 8461 8462 8463 8464 8465 8466 8467 8468 0
-8469 4868 0
-8469 155 0
-8470 4869 0
-8470 156 0
-8471 4870 0
-8471 157 0
-8472 4871 0
-8472 158 0
-8473 4872 0
-8473 159 0
-8474 4873 0
-8474 160 0
-8475 4874 0
-8475 161 0
-8476 4875 0
-8476 162 0
-8477 4876 0
-8477 163 0
-8478 4877 0
-8478 164 0
-8479 4878 0
-8479 165 0
-8480 4879 0
-8480 166 0
-8481 4880 0
-8481 167 0
-8482 4881 0
-8482 168 0
8469 8470 8471 8472 8473 8474 8475 8476 8477 8478 8479 8480 8481 8482 0
-8483 4921 0
-8483 155 0
-8484 4922 0
-8484 156 0
-8485 4923 0
-8485 157 0
-8486 4924 0
-8486 158 0
-8487 4925 0
-8487 159 0
-8488 4926 0
-8488 160 0
-8489 4927 0
-8489 161 0
-8490 4928 0
-8490 162 0
-8491 4929 0
-8491 163 0
-8492 4930 0
-8492 164 0
-8493 4931 0
-8493 165 0
-8494 4932 0
-8494 166 0
-8495 4933 0
-8495 167 0
-8496 4934 0
-8496 168 0
8483 8484 8485 8486 8487 8488 8489 8490 8491 8492 8493 8494 8495 8496 0
-8497 5027 0
-8497 127 0
-8498 5028 0
-8498 128 0
-8499 5029 0
-8499 129 0
-8500 5030 0
-8500 130 0
-8501 5031 0
-8501 131 0
-8502 5032 0
-8502 132 0
-8503 5033 0
-8503 133 0
-8504 5034 0
-8504 134 0
-8505 5035 0
-8505 135 0
-8506 5036 0
-8506 136 0
-8507 5037 0
-8507 137 0
-8508 5038 0
-8508 138 0
-8509 5039 0
-8509 139 0
-8510 5040 0
-8510 140 0
8497 8498 8499 8500 8501 8502 8503 8504 8505 8506 8507 8508 8509 8510 0
-8511 5027 0
-8511 141 0
-8512 5028 0
-8512 142 0
-8513 5029 0
-8513 143 0
-8514 5030 0
-8514 144 0
-8515 5031 0
-8515 145 0
-8516 5032 0
-8516 146 0
-8517 5033 0
-8517 147 0
-8518 5034 0
-8518 148 0
-8519 5035 0
-8519 149 0
-8520 5036 0
-8520 150 0
-8521 5037 0
-8521 151 0
-8522 5038 0
-8522 152 0
-8523 5039 0
-8523 153 0
-8524 5040 0
-8524 154 0
8511 8512 8513 8514 8515 8516 8517 8518 8519 8520 8521 8522 8523 8524 0
-8525 5027 0
-8525 155 0
-8526 5028 0
-8526 156 0
-8527 5029 0
-8527 157 0
-8528 5030 0
-8528 158 0
-8529 5031 0
-8529 159 0
-8530 5032 0
-8530 160 0
-8531 5033 0
-8531 161 0
-8532 5034 0
-8532 162 0
-8533 5035 0
-8533 163 0
-8534 5036 0
-8534 164 0
-8535 5037 0
-8535 165 0
-8536 5038 0
-8536 166 0
-8537 5039 0
-8537 167 0
-8538 5040 0
-8538 168 0
8525 8526 8527 8528 8529 8530 8531 8532 8533 8534 8535 8536 8537 8538 0
-8539 5080 0
-8539 141 0
-8540 5081 0
-8540 142 0
-8541 5082 0
-8541 143 0
-8542 5083 0
-8542 144 0
-8543 5084 0
-8543 145 0
-8544 5085 0
-8544 146 0
-8545 5086 0
-8545 147 0
-8546 5087 0
-8546 148 0
-8547 5088 0
-8547 149 0
-8548 5089 0
-8548 150 0
-8549 5090 0
-8549 151 0
-8550 5091 0
-8550 152 0
-8551 5092 0
-8551 153 0
-8552 5093 0
-8552 154 0
8539 8540 8541 8542 8543 8544 8545 8546 8547 8548 8549 8550 8551 8552 0
-8553 5080 0
-8553 155 0
-8554 5081 0
-8554 156 0
-8555 5082 0
-8555 157 0
-8556 5083 0
-8556 158 0
-8557 5084 0
-8557 159 0
-8558 5085 0
-8558 160 0
-8559 5086 0
-8559 161 0
-8560 5087 0
-8560 162 0
-8561 5088 0
-8561 163 0
-8562 5089 0
-8562 164 0
-8563 5090 0
-8563 165 0
-8564 5091 0
-8564 166 0
-8565 5092 0
-8565 167 0
-8566 5093 0
-8566 168 0
8553 8554 8555 8556 8557 8558 8559 8560 8561 8562 8563 8564 8565 8566 0
-8567 5133 0
-8567 155 0
-8568 5134 0
-8568 156 0
-8569 5135 0
-8569 157 0
-8570 5136 0
-8570 158 0
-8571 5137 0
-8571 159 0
-8572 5138 0
-8572 160 0
-8573 5139 0
-8573 161 0
-8574 5140 0
-8574 162 0
-8575 5141 0
-8575 163 0
-8576 5142 0
-8576 164 0
-8577 5143 0
-8577 165 0
-8578 5144 0
-8578 166 0
-8579 5145 0
-8579 167 0
-8580 5146 0
-8580 168 0
8567 8568 8569 8570 8571 8572 8573 8574 8575 8576 8577 8578 8579 8580 0
-8581 5239 0
-8581 141 0
-8582 5240 0
-8582 142 0
-8583 5241 0
-8583 143 0
-8584 5242 0
-8584 144 0
-8585 5243 0
-8585 145 0
-8586 5244 0
-8586 146 0
-8587 5245 0
-8587 147 0
-8588 5246 0
-8588 148 0
-8589 5247 0
-8589 149 0
-8590 5248 0
-8590 150 0
-8591 5249 0
-8591 151 0
-8592 5250 0
-8592 152 0
-8593 5251 0
-8593 153 0
-8594 5252 0
-8594 154 0
8581 8582 8583 8584 8585 8586 8587 8588 8589 8590 8591 8592 8593 8594 0
-8595 5239 0
-8595 155 0
-8596 5240 0
-8596 156 0
-8597 5241 0
-8597 157 0
-8598 5242 0
-8598 158 0
-8599 5243 0
-8599 159 0
-8600 5244 0
-8600 160 0
-8601 5245 0
-8601 161 0
-8602 5246 0
-8602 162 0
-8603 5247 0
-8603 163 0
-8604 5248 0
-8604 164 0
-8605 5249 0
-8605 165 0
-8606 5250 0
-8606 166 0
-8607 5251 0
-8607 167 0
-8608 5252 0
-8608 168 0
8595 8596 8597 8598 8599 8600 8601 8602 8603 8604 8605 8606 8607 8608 0
-8609 5292 0
-8609 155 0
-8610 5293 0
-8610 156 0
-8611 5294 0
-8611 157 0
-8612 5295 0
-8612 158 0
-8613 5296 0
-8613 159 0
-8614 5297 0
-8614 160 0
-8615 5298 0
-8615 161 0
-8616 5299 0
-8616 162 0
-8617 5300 0
-8617 163 0
-8618 5301 0
-8618 164 0
-8619 5302 0
-8619 165 0
-8620 5303 0
-8620 166 0
-8621 5304 0
-8621 167 0
-8622 5305 0
-8622 168 0
8609 8610 8611 8612 8613 8614 8615 8616 8617 8618 8619 8620 8621 8622 0
-8623 5398 0
-8623 155 0
-8624 5399 0
-8624 156 0
-8625 5400 0
-8625 157 0
-8626 5401 0
-8626 158 0
-8627 5402 0
-8627 159 0
-8628 5403 0
-8628 160 0
-8629 5404 0
-8629 161 0
-8630 5405 0
-8630 162 0
-8631 5406 0
-8631 163 0
-8632 5407 0
-8632 164 0
-8633 5408 0
-8633 165 0
-8634 5409 0
-8634 166 0
-8635 5410 0
-8635 167 0
-8636 5411 0
-8636 168 0
8623 8624 8625 8626 8627 8628 8629 8630 8631 8632 8633 8634 8635 8636 0
1 0
15 0
2 0
16 0
3 0
17 0
4 0
-18 0
5 0
-19 0
6 0
-20 0
7 0
-21 0
-8 0
22 0
-9 0
23 0
-10 0
24 0
-11 0
25 0
-12 0
-26 0
-13 0
-27 0
-14 0
-28 0
29 -43 0
29 43 8637 0
-29 -43 8637 0
-8637 30 -44 0
-8637 30 44 8638 0
-8637 -30 -44 8638 0
-8638 31 -45 0
-8638 31 45 8639 0
-8638 -31 -45 8639 0
-8639 32 -46 0
-8639 32 46 8640 0
-8639 -32 -46 8640 0
-8640 33 -47 0
-8640 33 47 8641 0
-8640 -33 -47 8641 0
-8641 34 -48 0
-8641 34 48 8642 0
-8641 -34 -48 8642 0
-8642 35 -49 0
-8642 35 49 8643 0
-8642 -35 -49 8643 0
-8643 36 -50 0
-8643 36 50 8644 0
-8643 -36 -50 8644 0
-8644 37 -51 0
-8644 37 51 8645 0
-8644 -37 -51 8645 0
-8645 38 -52 0
-8645 38 52 8646 0
-8645 -38 -52 8646 0
-8646 39 -53 0
-8646 39 53 8647 0
-8646 -39 -53 8647 0
-8647 40 -54 0
-8647 40 54 8648 0
-8647 -40 -54 8648 0
-8648 41 -55 0
-8648 41 55 8649 0
-8648 -41 -55 8649 0
-8649 42 -56 0
43 -57 0
43 57 8650 0
-43 -57 8650 0
-8650 44 -58 0
-8650 44 58 8651 0
-8650 -44 -58 8651 0
-8651 45 -59 0
-8651 45 59 8652 0
-8651 -45 -59 8652 0
-8652 46 -60 0
-8652 46 60 8653 0
-8652 -46 -60 8653 0
-8653 47 -61 0
-8653 47 61 8654 0
-8653 -47 -61 8654 0
-8654 48 -62 0
-8654 48 62 8655 0
-8654 -48 -62 8655 0
-8655 49 -63 0
-8655 49 63 8656 0
-8655 -49 -63 8656 0
-8656 50 -64 0
-8656 50 64 8657 0
-8656 -50 -64 8657 0
-8657 51 -65 0
-8657 51 65 8658 0
-8657 -51 -65 8658 0
-8658 52 -66 0
-8658 52 66 8659 0
-8658 -52 -66 8659 0
-8659 53 -67 0
-8659 53 67 8660 0
-8659 -53 -67 8660 0
-8660 54 -68 0
-8660 54 68 8661 0
-8660 -54 -68 8661 0
-8661 55 -69 0
-8661 55 69 8662 0
-8661 -55 -69 8662 0
-8662 56 -70 0
57 -71 0
57 71 8663 0
-57 -71 8663 0
-8663 58 -72 0
-8663 58 72 8664 0
-8663 -58 -72 8664 0
-8664 59 -73 0
-8664 59 73 8665 0
-8664 -59 -73 8665 0
-8665 60 -74 0
-8665 60 74 8666 0
-8665 -60 -74 8666 0
-8666 61 -75 0
-8666 61 75 8667 0
-8666 -61 -75 8667 0
-8667 62 -76 0
-8667 62 76 8668 0
-8667 -62 -76 8668 0
-8668 63 -77 0
-8668 63 77 8669 0
-8668 -63 -77 8669 0
-8669 64 -78 0
-8669 64 78 8670 0
-8669 -64 -78 8670 0
-8670 65 -79 0
-8670 65 79 8671 0
-8670 -65 -79 8671 0
-8671 66 -80 0
-8671 66 80 8672 0
-8671 -66 -80 8672 0
-8672 67 -81 0
-8672 67 81 8673 0
-8672 -67 -81 8673 0
-8673 68 -82 0
-8673 68 82 8674 0
-8673 -68 -82 8674 0
-8674 69 -83 0
-8674 69 83 8675 0
-8674 -69 -83 8675 0
-8675 70 -84 0
71 -85 0
71 85 8676 0
-71 -85 8676 0
-8676 72 -86 0
-8676 72 86 8677 0
-8676 -72 -86 8677 0
-8677 73 -87 0
-8677 73 87 8678 0
-8677 -73 -87 8678 0
-8678 74 -88 0
-8678 74 88 8679 0
-8678 -74 -88 8679 0
-8679 75 -89 0
-8679 75 89 8680 0
-8679 -75 -89 8680 0
-8680 76 -90 0
-8680 76 90 8681 0
-8680 -76 -90 8681 0
-8681 77 -91 0
-8681 77 91 8682 0
-8681 -77 -91 8682 0
-8682 78 -92 0
-8682 78 92 8683 0
-8682 -78 -92 8683 0
-8683 79 -93 0
-8683 79 93 8684 0
-8683 -79 -93 8684 0
-8684 80 -94 0
-8684 80 94 8685 0
-8684 -80 -94 8685 0
-8685 81 -95 0
-8685 81 95 8686 0
-8685 -81 -95 8686 0
-8686 82 -96 0
-8686 82 96 8687 0
-8686 -82 -96 8687 0
-8687 83 -97 0
-8687 83 97 8688 0
-8687 -83 -97 8688 0
-8688 84 -98 0
85 -99 0
85 99 8689 0
-85 -99 8689 0
-8689 86 -100 0
-8689 86 100 8690 0
-8689 -86 -100 8690 0
-8690 87 -101 0
-8690 87 101 8691 0
-8690 -87 -101 8691 0
-8691 88 -102 0
-8691 88 102 8692 0
-8691 -88 -102 8692 0
-8692 89 -103 0
-8692 89 103 8693 0
-8692 -89 -103 8693 0
-8693 90 -104 0
-8693 90 104 8694 0
-8693 -90 -104 8694 0
-8694 91 -105 0
-8694 91 105 8695 0
-8694 -91 -105 8695 0
-8695 92 -106 0
-8695 92 106 8696 0
-8695 -92 -106 8696 0
-8696 93 -107 0
-8696 93 107 8697 0
-8696 -93 -107 8697 0
-8697 94 -108 0
-8697 94 108 8698 0
-8697 -94 -108 8698 0
-8698 95 -109 0
-8698 95 109 8699 0
-8698 -95 -109 8699 0
-8699 96 -110 0
-8699 96 110 8700 0
-8699 -96 -110 8700 0
-8700 97 -111 0
-8700 97 111 8701 0
-8700 -97 -111 8701 0
-8701 98 -112 0
99 -113 0
99 113 8702 0
-99 -113 8702 0
-8702 100 -114 0
-8702 100 114 8703 0
-8702 -100 -114 8703 0
-8703 101 -115 0
-8703 101 115 8704 0
-8703 -101 -115 8704 0
-8704 102 -116 0
-8704 102 116 8705 0
-8704 -102 -116 8705 0
-8705 103 -117 0
-8705 103 117 8706 0
-8705 -103 -117 8706 0
-8706 104 -118 0
-8706 104 118 8707 0
-8706 -104 -118 8707 0
-8707 105 -119 0
-8707 105 119 8708 0
-8707 -105 -119 8708 0
-8708 106 -120 0
-8708 106 120 8709 0
-8708 -106 -120 8709 0
-8709 107 -121 0
-8709 107 121 8710 0
-8709 -107 -121 8710 0
-8710 108 -122 0
-8710 108 122 8711 0
-8710 -108 -122 8711 0
-8711 109 -123 0
-8711 109 123 8712 0
-8711 -109 -123 8712 0
-8712 110 -124 0
-8712 110 124 8713 0
-8712 -110 -124 8713 0
-8713 111 -125 0
-8713 111 125 8714 0
-8713 -111 -125 8714 0
-8714 112 -126 0
113 -127 0
113 127 8715 0
-113 -127 8715 0
-8715 114 -128 0
-8715 114 128 8716 0
-8715 -114 -128 8716 0
-8716 115 -129 0
-8716 115 129 8717 0
-8716 -115 -129 8717 0
-8717 116 -130 0
-8717 116 130 8718 0
-8717 -116 -130 8718 0
-8718 117 -131 0
-8718 117 131 8719 0
-8718 -117 -131 8719 0
-8719 118 -132 0
-8719 118 132 8720 0
-8719 -118 -132 8720 0
-8720 119 -133 0
-8720 119 133 8721 0
-8720 -119 -133 8721 0
-8721 120 -134 0
-8721 120 134 8722 0
-8721 -120 -134 8722 0
-8722 121 -135 0
-8722 121 135 8723 0
-8722 -121 -135 8723 0
-8723 122 -136 0
-8723 122 136 8724 0
-8723 -122 -136 8724 0
-8724 123 -137 0
-8724 123 137 8725 0
-8724 -123 -137 8725 0
-8725 124 -138 0
-8725 124 138 8726 0
-8725 -124 -138 8726 0
-8726 125 -139 0
-8726 125 139 8727 0
-8726 -125 -139 8727 0
-8727 126 -140 0
127 -141 0
127 141 8728 0
-127 -141 8728 0
-8728 128 -142 0
-8728 128 142 8729 0
-8728 -128 -142 8729 0
-8729 129 -143 0
-8729 129 143 8730 0
-8729 -129 -143 8730 0
-8730 130 -144 0
-8730 130 144 8731 0
-8730 -130 -144 8731 0
-8731 131 -145 0
-8731 131 145 8732 0
-8731 -131 -145 8732 0
-8732 132 -146 0
-8732 132 146 8733 0
-8732 -132 -146 8733 0
-8733 133 -147 0
-8733 133 147 8734 0
-8733 -133 -147 8734 0
-8734 134 -148 0
-8734 134 148 8735 0
-8734 -134 -148 8735 0
-8735 135 -149 0
-8735 135 149 8736 0
-8735 -135 -149 8736 0
-8736 136 -150 0
-8736 136 150 8737 0
-8736 -136 -150 8737 0
-8737 137 -151 0
-8737 137 151 8738 0
-8737 -137 -151 8738 0
-8738 138 -152 0
-8738 138 152 8739 0
-8738 -138 -152 8739 0
-8739 139 -153 0
-8739 139 153 8740 0
-8739 -139 -153 8740 0
-8740 140 -154 0
141 -155 0
141 155 8741 0
-141 -155 8741 0
-8741 142 -156 0
-8741 142 156 8742 0
-8741 -142 -156 8742 0
-8742 143 -157 0
-8742 143 157 8743 0
-8742 -143 -157 8743 0
-8743 144 -158 0
-8743 144 158 8744 0
-8743 -144 -158 8744 0
-8744 145 -159 0
-8744 145 159 8745 0
-8744 -145 -159 8745 0
-8745 146 -160 0
-8745 146 160 8746 0
-8745 -146 -160 8746 0
-8746 147 -161 0
-8746 147 161 8747 0
-8746 -147 -161 8747 0
-8747 148 -162 0
-8747 148 162 8748 0
-8747 -148 -162 8748 0
-8748 149 -163 0
-8748 149 163 8749 0
-8748 -149 -163 8749 0
-8749 150 -164 0
-8749 150 164 8750 0
-8749 -150 -164 8750 0
-8750 151 -165 0
-8750 151 165 8751 0
-8750 -151 -165 8751 0
-8751 152 -166 0
-8751 152 166 8752 0
-8751 -152 -166 8752 0
-8752 153 -167 0
-8752 153 167 8753 0
-8752 -153 -167 8753 0
-8753 154 -168 0
29 -30 0
29 30 8754 0
-29 -30 8754 0
-8754 43 -44 0
-8754 43 44 8755 0
-8754 -43 -44 8755 0
-8755 57 -58 0
-8755 57 58 8756 0
-8755 -57 -58 8756 0
-8756 71 -72 0
-8756 71 72 8757 0
-8756 -71 -72 8757 0
-8757 85 -86 0
-8757 85 86 8758 0
-8757 -85 -86 8758 0
-8758 99 -100 0
-8758 99 100 8759 0
-8758 -99 -100 8759 0
-8759 113 -114 0
-8759 113 114 8760 0
-8759 -113 -114 8760 0
-8760 127 -128 0
-8760 127 128 8761 0
-8760 -127 -128 8761 0
-8761 141 -142 0
-8761 141 142 8762 0
-8761 -141 -142 8762 0
-8762 155 -156 0
30 -31 0
30 31 8763 0
-30 -31 8763 0
-8763 44 -45 0
-8763 44 45 8764 0
-8763 -44 -45 8764 0
-8764 58 -59 0
-8764 58 59 8765 0
-8764 -58 -59 8765 0
-8765 72 -73 0
-8765 72 73 8766 0
-8765 -72 -73 8766 0
-8766 86 -87 0
-8766 86 87 8767 0
-8766 -86 -87 8767 0
-8767 100 -101 0
-8767 100 101 8768 0
-8767 -100 -101 8768 0
-8768 114 -115 0
-8768 114 115 8769 0
-8768 -114 -115 8769 0
-8769 128 -129 0
-8769 128 129 8770 0
-8769 -128 -129 8770 0
-8770 142 -143 0
-8770 142 143 8771 0
-8770 -142 -143 8771 0
-8771 156 -157 0
32 -33 0
32 33 8772 0
-32 -33 8772 0
-8772 46 -47 0
-8772 46 47 8773 0
-8772 -46 -47 8773 0
-8773 60 -61 0
-8773 60 61 8774 0
-8773 -60 -61 8774 0
-8774 74 -75 0
-8774 74 75 8775 0
-8774 -74 -75 8775 0
-8775 88 -89 0
-8775 88 89 8776 0
-8775 -88 -89 8776 0
-8776 102 -103 0
-8776 102 103 8777 0
-8776 -102 -103 8777 0
-8777 116 -117 0
-8777 116 117 8778 0
-8777 -116 -117 8778 0
-8778 130 -131 0
-8778 130 131 8779 0
-8778 -130 -131 8779 0
-8779 144 -145 0
-8779 144 145 8780 0
-8779 -144 -145 8780 0
-8780 158 -159 0
33 -34 0
33 34 8781 0
-33 -34 8781 0
-8781 47 -48 0
-8781 47 48 8782 0
-8781 -47 -48 8782 0
-8782 61 -62 0
-8782 61 62 8783 0
-8782 -61 -62 8783 0
-8783 75 -76 0
-8783 75 76 8784 0
-8783 -75 -76 8784 0
-8784 89 -90 0
-8784 89 90 8785 0
-8784 -89 -90 8785 0
-8785 103 -104 0
-8785 103 104 8786 0
-8785 -103 -104 8786 0
-8786 117 -118 0
-8786 117 118 8787 0
-8786 -117 -118 8787 0
-8787 131 -132 0
-8787 131 132 8788 0
-8787 -131 -132 8788 0
-8788 145 -146 0
-8788 145 146 8789 0
-8788 -145 -146 8789 0
-8789 159 -160 0
34 -35 0
34 35 8790 0
-34 -35 8790 0
-8790 48 -49 0
-8790 48 49 8791 0
-8790 -48 -49 8791 0
-8791 62 -63 0
-8791 62 63 8792 0
-8791 -62 -63 8792 0
-8792 76 -77 0
-8792 76 77 8793 0
-8792 -76 -77 8793 0
-8793 90 -91 0
-8793 90 91 8794 0
-8793 -90 -91 8794 0
-8794 104 -105 0
-8794 104 105 8795 0
-8794 -104 -105 8795 0
-8795 118 -119 0
-8795 118 119 8796 0
-8795 -118 -119 8796 0
-8796 132 -133 0
-8796 132 133 8797 0
-8796 -132 -133 8797 0
-8797 146 -147 0
-8797 146 147 8798 0
-8797 -146 -147 8798 0
-8798 160 -161 0
36 -37 0
36 37 8799 0
-36 -37 8799 0
-8799 50 -51 0
-8799 50 51 8800 0
-8799 -50 -51 8800 0
-8800 64 -65 0
-8800 64 65 8801 0
-8800 -64 -65 8801 0
-8801 78 -79 0
-8801 78 79 8802 0
-8801 -78 -79 8802 0
-8802 92 -93 0
-8802 92 93 8803 0
-8802 -92 -93 8803 0
-8803 106 -107 0
-8803 106 107 8804 0
-8803 -106 -107 8804 0
-8804 120 -121 0
-8804 120 121 8805 0
-8804 -120 -121 8805 0
-8805 134 -135 0
-8805 134 135 8806 0
-8805 -134 -135 8806 0
-8806 148 -149 0
-8806 148 149 8807 0
-8806 -148 -149 8807 0
-8807 162 -163 0
37 -38 0
37 38 8808 0
-37 -38 8808 0
-8808 51 -52 0
-8808 51 52 8809 0
-8808 -51 -52 8809 0
-8809 65 -66 0
-8809 65 66 8810 0
-8809 -65 -66 8810 0
-8810 79 -80 0
-8810 79 80 8811 0
-8810 -79 -80 8811 0
-8811 93 -94 0
-8811 93 94 8812 0
-8811 -93 -94 8812 0
-8812 107 -108 0
-8812 107 108 8813 0
-8812 -107 -108 8813 0
-8813 121 -122 0
-8813 121 122 8814 0
-8813 -121 -122 8814 0
-8814 135 -136 0
-8814 135 136 8815 0
-8814 -135 -136 8815 0
-8815 149 -150 0
-8815 149 150 8816 0
-8815 -149 -150 8816 0
-8816 163 -164 0
38 -39 0
38 39 8817 0
-38 -39 8817 0
-8817 52 -53 0
-8817 52 53 8818 0
-8817 -52 -53 8818 0
-8818 66 -67 0
-8818 66 67 8819 0
-8818 -66 -67 8819 0
-8819 80 -81 0
-8819 80 81 8820 0
-8819 -80 -81 8820 0
-8820 94 -95 0
-8820 94 95 8821 0
-8820 -94 -95 8821 0
-8821 108 -109 0
-8821 108 109 8822 0
-8821 -108 -109 8822 0
-8822 122 -123 0
-8822 122 123 8823 0
-8822 -122 -123 8823 0
-8823 136 -137 0
-8823 136 137 8824 0
-8823 -136 -137 8824 0
-8824 150 -151 0
-8824 150 151 8825 0
-8824 -150 -151 8825 0
-8825 164 -165 0
40 -41 0
40 41 8826 0
-40 -41 8826 0
-8826 54 -55 0
-8826 54 55 8827 0
-8826 -54 -55 8827 0
-8827 68 -69 0
-8827 68 69 8828 0
-8827 -68 -69 8828 0
-8828 82 -83 0
-8828 82 83 8829 0
-8828 -82 -83 8829 0
-8829 96 -97 0
-8829 96 97 8830 0
-8829 -96 -97 8830 0
-8830 110 -111 0
-8830 110 111 8831 0
-8830 -110 -111 8831 0
-8831 124 -125 0
-8831 124 125 8832 0
-8831 -124 -125 8832 0
-8832 138 -139 0
-8832 138 139 8833 0
-8832 -138 -139 8833 0
-8833 152 -153 0
-8833 152 153 8834 0
-8833 -152 -153 8834 0
-8834 166 -167 0
41 -42 0
41 42 8835 0
-41 -42 8835 0
-8835 55 -56 0
-8835 55 56 8836 0
-8835 -55 -56 8836 0
-8836 69 -70 0
-8836 69 70 8837 0
-8836 -69 -70 8837 0
-8837 83 -84 0
-8837 83 84 8838 0
-8837 -83 -84 8838 0
-8838 97 -98 0
-8838 97 98 8839 0
-8838 -97 -98 8839 0
-8839 111 -112 0
-8839 111 112 8840 0
-8839 -111 -112 8840 0
-8840 125 -126 0
-8840 125 126 8841 0
-8840 -125 -126 8841 0
-8841 139 -140 0
-8841 139 140 8842 0
-8841 -139 -140 8842 0
-8842 153 -154 0
-8842 153 154 8843 0
-8842 -153 -154 8843 0
-8843 167 -168 0
