c C(2m,m,3)<= 14, m=7 dual direct encoding
c gen_direct.py 7 proofs/direct_m7.cnf --pair
p cnf 12720 36774
-1 197 0
-197 1 0
-197 198 0
-2 198 0
-198 197 2 0
-197 -2 199 0
-199 197 0
-199 2 0
-198 200 0
-3 200 0
-200 198 3 0
-199 201 0
-198 -3 201 0
-201 199 198 0
-201 199 3 0
-199 -3 202 0
-202 199 0
-202 3 0
-200 203 0
-4 203 0
-203 200 4 0
-201 204 0
-200 -4 204 0
-204 201 200 0
-204 201 4 0
-202 205 0
-201 -4 205 0
-205 202 201 0
-205 202 4 0
-202 -4 206 0
-206 202 0
-206 4 0
-203 207 0
-5 207 0
-207 203 5 0
-204 208 0
-203 -5 208 0
-208 204 203 0
-208 204 5 0
-205 209 0
-204 -5 209 0
-209 205 204 0
-209 205 5 0
-206 210 0
-205 -5 210 0
-210 206 205 0
-210 206 5 0
-206 -5 211 0
-211 206 0
-211 5 0
-207 212 0
-6 212 0
-212 207 6 0
-208 213 0
-207 -6 213 0
-213 208 207 0
-213 208 6 0
-209 214 0
-208 -6 214 0
-214 209 208 0
-214 209 6 0
-210 215 0
-209 -6 215 0
-215 210 209 0
-215 210 6 0
-211 216 0
-210 -6 216 0
-216 211 210 0
-216 211 6 0
-211 -6 217 0
-217 211 0
-217 6 0
-212 218 0
-7 218 0
-218 212 7 0
-213 219 0
-212 -7 219 0
-219 213 212 0
-219 213 7 0
-214 220 0
-213 -7 220 0
-220 214 213 0
-220 214 7 0
-215 221 0
-214 -7 221 0
-221 215 214 0
-221 215 7 0
-216 222 0
-215 -7 222 0
-222 216 215 0
-222 216 7 0
-217 223 0
-216 -7 223 0
-223 217 216 0
-223 217 7 0
-217 -7 224 0
-224 217 0
-224 7 0
-218 225 0
-8 225 0
-225 218 8 0
-219 226 0
-218 -8 226 0
-226 219 218 0
-226 219 8 0
-220 227 0
-219 -8 227 0
-227 220 219 0
-227 220 8 0
-221 228 0
-220 -8 228 0
-228 221 220 0
-228 221 8 0
-222 229 0
-221 -8 229 0
-229 222 221 0
-229 222 8 0
-223 230 0
-222 -8 230 0
-230 223 222 0
-230 223 8 0
-224 231 0
-223 -8 231 0
-231 224 223 0
-231 224 8 0
-224 -8 232 0
-232 224 0
-232 8 0
-225 233 0
-9 233 0
-233 225 9 0
-226 234 0
-225 -9 234 0
-234 226 225 0
-234 226 9 0
-227 235 0
-226 -9 235 0
-235 227 226 0
-235 227 9 0
-228 236 0
-227 -9 236 0
-236 228 227 0
-236 228 9 0
-229 237 0
-228 -9 237 0
-237 229 228 0
-237 229 9 0
-230 238 0
-229 -9 238 0
-238 230 229 0
-238 230 9 0
-231 239 0
-230 -9 239 0
-239 231 230 0
-239 231 9 0
-232 240 0
-231 -9 240 0
-240 232 231 0
-240 232 9 0
-233 241 0
-10 241 0
-241 233 10 0
-234 242 0
-233 -10 242 0
-242 234 233 0
-242 234 10 0
-235 243 0
-234 -10 243 0
-243 235 234 0
-243 235 10 0
-236 244 0
-235 -10 244 0
-244 236 235 0
-244 236 10 0
-237 245 0
-236 -10 245 0
-245 237 236 0
-245 237 10 0
-238 246 0
-237 -10 246 0
-246 238 237 0
-246 238 10 0
-239 247 0
-238 -10 247 0
-247 239 238 0
-247 239 10 0
-240 248 0
-239 -10 248 0
-248 240 239 0
-248 240 10 0
-241 249 0
-11 249 0
-249 241 11 0
-242 250 0
-241 -11 250 0
-250 242 241 0
-250 242 11 0
-243 251 0
-242 -11 251 0
-251 243 242 0
-251 243 11 0
-244 252 0
-243 -11 252 0
-252 244 243 0
-252 244 11 0
-245 253 0
-244 -11 253 0
-253 245 244 0
-253 245 11 0
-246 254 0
-245 -11 254 0
-254 246 245 0
-254 246 11 0
-247 255 0
-246 -11 255 0
-255 247 246 0
-255 247 11 0
-248 256 0
-247 -11 256 0
-256 248 247 0
-256 248 11 0
-249 257 0
-12 257 0
-257 249 12 0
-250 258 0
-249 -12 258 0
-258 250 249 0
-258 250 12 0
-251 259 0
-250 -12 259 0
-259 251 250 0
-259 251 12 0
-252 260 0
-251 -12 260 0
-260 252 251 0
-260 252 12 0
-253 261 0
-252 -12 261 0
-261 253 252 0
-261 253 12 0
-254 262 0
-253 -12 262 0
-262 254 253 0
-262 254 12 0
-255 263 0
-254 -12 263 0
-263 255 254 0
-263 255 12 0
-256 264 0
-255 -12 264 0
-264 256 255 0
-264 256 12 0
-257 265 0
-13 265 0
-265 257 13 0
-258 266 0
-257 -13 266 0
-266 258 257 0
-266 258 13 0
-259 267 0
-258 -13 267 0
-267 259 258 0
-267 259 13 0
-260 268 0
-259 -13 268 0
-268 260 259 0
-268 260 13 0
-261 269 0
-260 -13 269 0
-269 261 260 0
-269 261 13 0
-262 270 0
-261 -13 270 0
-270 262 261 0
-270 262 13 0
-263 271 0
-262 -13 271 0
-271 263 262 0
-271 263 13 0
-264 272 0
-263 -13 272 0
-272 264 263 0
-272 264 13 0
-265 273 0
-14 273 0
-273 265 14 0
-266 274 0
-265 -14 274 0
-274 266 265 0
-274 266 14 0
-267 275 0
-266 -14 275 0
-275 267 266 0
-275 267 14 0
-268 276 0
-267 -14 276 0
-276 268 267 0
-276 268 14 0
-269 277 0
-268 -14 277 0
-277 269 268 0
-277 269 14 0
-270 278 0
-269 -14 278 0
-278 270 269 0
-278 270 14 0
-271 279 0
-270 -14 279 0
-279 271 270 0
-279 271 14 0
-272 280 0
-271 -14 280 0
-280 272 271 0
-280 272 14 0
279 0
-280 0
-15 281 0
-281 15 0
-281 282 0
-16 282 0
-282 281 16 0
-281 -16 283 0
-283 281 0
-283 16 0
-282 284 0
-17 284 0
-284 282 17 0
-283 285 0
-282 -17 285 0
-285 283 282 0
-285 283 17 0
-283 -17 286 0
-286 283 0
-286 17 0
-284 287 0
-18 287 0
-287 284 18 0
-285 288 0
-284 -18 288 0
-288 285 284 0
-288 285 18 0
-286 289 0
-285 -18 289 0
-289 286 285 0
-289 286 18 0
-286 -18 290 0
-290 286 0
-290 18 0
-287 291 0
-19 291 0
-291 287 19 0
-288 292 0
-287 -19 292 0
-292 288 287 0
-292 288 19 0
-289 293 0
-288 -19 293 0
-293 289 288 0
-293 289 19 0
-290 294 0
-289 -19 294 0
-294 290 289 0
-294 290 19 0
-290 -19 295 0
-295 290 0
-295 19 0
-291 296 0
-20 296 0
-296 291 20 0
-292 297 0
-291 -20 297 0
-297 292 291 0
-297 292 20 0
-293 298 0
-292 -20 298 0
-298 293 292 0
-298 293 20 0
-294 299 0
-293 -20 299 0
-299 294 293 0
-299 294 20 0
-295 300 0
-294 -20 300 0
-300 295 294 0
-300 295 20 0
-295 -20 301 0
-301 295 0
-301 20 0
-296 302 0
-21 302 0
-302 296 21 0
-297 303 0
-296 -21 303 0
-303 297 296 0
-303 297 21 0
-298 304 0
-297 -21 304 0
-304 298 297 0
-304 298 21 0
-299 305 0
-298 -21 305 0
-305 299 298 0
-305 299 21 0
-300 306 0
-299 -21 306 0
-306 300 299 0
-306 300 21 0
-301 307 0
-300 -21 307 0
-307 301 300 0
-307 301 21 0
-301 -21 308 0
-308 301 0
-308 21 0
-302 309 0
-22 309 0
-309 302 22 0
-303 310 0
-302 -22 310 0
-310 303 302 0
-310 303 22 0
-304 311 0
-303 -22 311 0
-311 304 303 0
-311 304 22 0
-305 312 0
-304 -22 312 0
-312 305 304 0
-312 305 22 0
-306 313 0
-305 -22 313 0
-313 306 305 0
-313 306 22 0
-307 314 0
-306 -22 314 0
-314 307 306 0
-314 307 22 0
-308 315 0
-307 -22 315 0
-315 308 307 0
-315 308 22 0
-308 -22 316 0
-316 308 0
-316 22 0
-309 317 0
-23 317 0
-317 309 23 0
-310 318 0
-309 -23 318 0
-318 310 309 0
-318 310 23 0
-311 319 0
-310 -23 319 0
-319 311 310 0
-319 311 23 0
-312 320 0
-311 -23 320 0
-320 312 311 0
-320 312 23 0
-313 321 0
-312 -23 321 0
-321 313 312 0
-321 313 23 0
-314 322 0
-313 -23 322 0
-322 314 313 0
-322 314 23 0
-315 323 0
-314 -23 323 0
-323 315 314 0
-323 315 23 0
-316 324 0
-315 -23 324 0
-324 316 315 0
-324 316 23 0
-317 325 0
-24 325 0
-325 317 24 0
-318 326 0
-317 -24 326 0
-326 318 317 0
-326 318 24 0
-319 327 0
-318 -24 327 0
-327 319 318 0
-327 319 24 0
-320 328 0
-319 -24 328 0
-328 320 319 0
-328 320 24 0
-321 329 0
-320 -24 329 0
-329 321 320 0
-329 321 24 0
-322 330 0
-321 -24 330 0
-330 322 321 0
-330 322 24 0
-323 331 0
-322 -24 331 0
-331 323 322 0
-331 323 24 0
-324 332 0
-323 -24 332 0
-332 324 323 0
-332 324 24 0
-325 333 0
-25 333 0
-333 325 25 0
-326 334 0
-325 -25 334 0
-334 326 325 0
-334 326 25 0
-327 335 0
-326 -25 335 0
-335 327 326 0
-335 327 25 0
-328 336 0
-327 -25 336 0
-336 328 327 0
-336 328 25 0
-329 337 0
-328 -25 337 0
-337 329 328 0
-337 329 25 0
-330 338 0
-329 -25 338 0
-338 330 329 0
-338 330 25 0
-331 339 0
-330 -25 339 0
-339 331 330 0
-339 331 25 0
-332 340 0
-331 -25 340 0
-340 332 331 0
-340 332 25 0
-333 341 0
-26 341 0
-341 333 26 0
-334 342 0
-333 -26 342 0
-342 334 333 0
-342 334 26 0
-335 343 0
-334 -26 343 0
-343 335 334 0
-343 335 26 0
-336 344 0
-335 -26 344 0
-344 336 335 0
-344 336 26 0
-337 345 0
-336 -26 345 0
-345 337 336 0
-345 337 26 0
-338 346 0
-337 -26 346 0
-346 338 337 0
-346 338 26 0
-339 347 0
-338 -26 347 0
-347 339 338 0
-347 339 26 0
-340 348 0
-339 -26 348 0
-348 340 339 0
-348 340 26 0
-341 349 0
-27 349 0
-349 341 27 0
-342 350 0
-341 -27 350 0
-350 342 341 0
-350 342 27 0
-343 351 0
-342 -27 351 0
-351 343 342 0
-351 343 27 0
-344 352 0
-343 -27 352 0
-352 344 343 0
-352 344 27 0
-345 353 0
-344 -27 353 0
-353 345 344 0
-353 345 27 0
-346 354 0
-345 -27 354 0
-354 346 345 0
-354 346 27 0
-347 355 0
-346 -27 355 0
-355 347 346 0
-355 347 27 0
-348 356 0
-347 -27 356 0
-356 348 347 0
-356 348 27 0
-349 357 0
-28 357 0
-357 349 28 0
-350 358 0
-349 -28 358 0
-358 350 349 0
-358 350 28 0
-351 359 0
-350 -28 359 0
-359 351 350 0
-359 351 28 0
-352 360 0
-351 -28 360 0
-360 352 351 0
-360 352 28 0
-353 361 0
-352 -28 361 0
-361 353 352 0
-361 353 28 0
-354 362 0
-353 -28 362 0
-362 354 353 0
-362 354 28 0
-355 363 0
-354 -28 363 0
-363 355 354 0
-363 355 28 0
-356 364 0
-355 -28 364 0
-364 356 355 0
-364 356 28 0
363 0
-364 0
-29 365 0
-365 29 0
-365 366 0
-30 366 0
-366 365 30 0
-365 -30 367 0
-367 365 0
-367 30 0
-366 368 0
-31 368 0
-368 366 31 0
-367 369 0
-366 -31 369 0
-369 367 366 0
-369 367 31 0
-367 -31 370 0
-370 367 0
-370 31 0
-368 371 0
-32 371 0
-371 368 32 0
-369 372 0
-368 -32 372 0
-372 369 368 0
-372 369 32 0
-370 373 0
-369 -32 373 0
-373 370 369 0
-373 370 32 0
-370 -32 374 0
-374 370 0
-374 32 0
-371 375 0
-33 375 0
-375 371 33 0
-372 376 0
-371 -33 376 0
-376 372 371 0
-376 372 33 0
-373 377 0
-372 -33 377 0
-377 373 372 0
-377 373 33 0
-374 378 0
-373 -33 378 0
-378 374 373 0
-378 374 33 0
-374 -33 379 0
-379 374 0
-379 33 0
-375 380 0
-34 380 0
-380 375 34 0
-376 381 0
-375 -34 381 0
-381 376 375 0
-381 376 34 0
-377 382 0
-376 -34 382 0
-382 377 376 0
-382 377 34 0
-378 383 0
-377 -34 383 0
-383 378 377 0
-383 378 34 0
-379 384 0
-378 -34 384 0
-384 379 378 0
-384 379 34 0
-379 -34 385 0
-385 379 0
-385 34 0
-380 386 0
-35 386 0
-386 380 35 0
-381 387 0
-380 -35 387 0
-387 381 380 0
-387 381 35 0
-382 388 0
-381 -35 388 0
-388 382 381 0
-388 382 35 0
-383 389 0
-382 -35 389 0
-389 383 382 0
-389 383 35 0
-384 390 0
-383 -35 390 0
-390 384 383 0
-390 384 35 0
-385 391 0
-384 -35 391 0
-391 385 384 0
-391 385 35 0
-385 -35 392 0
-392 385 0
-392 35 0
-386 393 0
-36 393 0
-393 386 36 0
-387 394 0
-386 -36 394 0
-394 387 386 0
-394 387 36 0
-388 395 0
-387 -36 395 0
-395 388 387 0
-395 388 36 0
-389 396 0
-388 -36 396 0
-396 389 388 0
-396 389 36 0
-390 397 0
-389 -36 397 0
-397 390 389 0
-397 390 36 0
-391 398 0
-390 -36 398 0
-398 391 390 0
-398 391 36 0
-392 399 0
-391 -36 399 0
-399 392 391 0
-399 392 36 0
-392 -36 400 0
-400 392 0
-400 36 0
-393 401 0
-37 401 0
-401 393 37 0
-394 402 0
-393 -37 402 0
-402 394 393 0
-402 394 37 0
-395 403 0
-394 -37 403 0
-403 395 394 0
-403 395 37 0
-396 404 0
-395 -37 404 0
-404 396 395 0
-404 396 37 0
-397 405 0
-396 -37 405 0
-405 397 396 0
-405 397 37 0
-398 406 0
-397 -37 406 0
-406 398 397 0
-406 398 37 0
-399 407 0
-398 -37 407 0
-407 399 398 0
-407 399 37 0
-400 408 0
-399 -37 408 0
-408 400 399 0
-408 400 37 0
-401 409 0
-38 409 0
-409 401 38 0
-402 410 0
-401 -38 410 0
-410 402 401 0
-410 402 38 0
-403 411 0
-402 -38 411 0
-411 403 402 0
-411 403 38 0
-404 412 0
-403 -38 412 0
-412 404 403 0
-412 404 38 0
-405 413 0
-404 -38 413 0
-413 405 404 0
-413 405 38 0
-406 414 0
-405 -38 414 0
-414 406 405 0
-414 406 38 0
-407 415 0
-406 -38 415 0
-415 407 406 0
-415 407 38 0
-408 416 0
-407 -38 416 0
-416 408 407 0
-416 408 38 0
-409 417 0
-39 417 0
-417 409 39 0
-410 418 0
-409 -39 418 0
-418 410 409 0
-418 410 39 0
-411 419 0
-410 -39 419 0
-419 411 410 0
-419 411 39 0
-412 420 0
-411 -39 420 0
-420 412 411 0
-420 412 39 0
-413 421 0
-412 -39 421 0
-421 413 412 0
-421 413 39 0
-414 422 0
-413 -39 422 0
-422 414 413 0
-422 414 39 0
-415 423 0
-414 -39 423 0
-423 415 414 0
-423 415 39 0
-416 424 0
-415 -39 424 0
-424 416 415 0
-424 416 39 0
-417 425 0
-40 425 0
-425 417 40 0
-418 426 0
-417 -40 426 0
-426 418 417 0
-426 418 40 0
-419 427 0
-418 -40 427 0
-427 419 418 0
-427 419 40 0
-420 428 0
-419 -40 428 0
-428 420 419 0
-428 420 40 0
-421 429 0
-420 -40 429 0
-429 421 420 0
-429 421 40 0
-422 430 0
-421 -40 430 0
-430 422 421 0
-430 422 40 0
-423 431 0
-422 -40 431 0
-431 423 422 0
-431 423 40 0
-424 432 0
-423 -40 432 0
-432 424 423 0
-432 424 40 0
-425 433 0
-41 433 0
-433 425 41 0
-426 434 0
-425 -41 434 0
-434 426 425 0
-434 426 41 0
-427 435 0
-426 -41 435 0
-435 427 426 0
-435 427 41 0
-428 436 0
-427 -41 436 0
-436 428 427 0
-436 428 41 0
-429 437 0
-428 -41 437 0
-437 429 428 0
-437 429 41 0
-430 438 0
-429 -41 438 0
-438 430 429 0
-438 430 41 0
-431 439 0
-430 -41 439 0
-439 431 430 0
-439 431 41 0
-432 440 0
-431 -41 440 0
-440 432 431 0
-440 432 41 0
-433 441 0
-42 441 0
-441 433 42 0
-434 442 0
-433 -42 442 0
-442 434 433 0
-442 434 42 0
-435 443 0
-434 -42 443 0
-443 435 434 0
-443 435 42 0
-436 444 0
-435 -42 444 0
-444 436 435 0
-444 436 42 0
-437 445 0
-436 -42 445 0
-445 437 436 0
-445 437 42 0
-438 446 0
-437 -42 446 0
-446 438 437 0
-446 438 42 0
-439 447 0
-438 -42 447 0
-447 439 438 0
-447 439 42 0
-440 448 0
-439 -42 448 0
-448 440 439 0
-448 440 42 0
447 0
-448 0
-43 449 0
-449 43 0
-449 450 0
-44 450 0
-450 449 44 0
-449 -44 451 0
-451 449 0
-451 44 0
-450 452 0
-45 452 0
-452 450 45 0
-451 453 0
-450 -45 453 0
-453 451 450 0
-453 451 45 0
-451 -45 454 0
-454 451 0
-454 45 0
-452 455 0
-46 455 0
-455 452 46 0
-453 456 0
-452 -46 456 0
-456 453 452 0
-456 453 46 0
-454 457 0
-453 -46 457 0
-457 454 453 0
-457 454 46 0
-454 -46 458 0
-458 454 0
-458 46 0
-455 459 0
-47 459 0
-459 455 47 0
-456 460 0
-455 -47 460 0
-460 456 455 0
-460 456 47 0
-457 461 0
-456 -47 461 0
-461 457 456 0
-461 457 47 0
-458 462 0
-457 -47 462 0
-462 458 457 0
-462 458 47 0
-458 -47 463 0
-463 458 0
-463 47 0
-459 464 0
-48 464 0
-464 459 48 0
-460 465 0
-459 -48 465 0
-465 460 459 0
-465 460 48 0
-461 466 0
-460 -48 466 0
-466 461 460 0
-466 461 48 0
-462 467 0
-461 -48 467 0
-467 462 461 0
-467 462 48 0
-463 468 0
-462 -48 468 0
-468 463 462 0
-468 463 48 0
-463 -48 469 0
-469 463 0
-469 48 0
-464 470 0
-49 470 0
-470 464 49 0
-465 471 0
-464 -49 471 0
-471 465 464 0
-471 465 49 0
-466 472 0
-465 -49 472 0
-472 466 465 0
-472 466 49 0
-467 473 0
-466 -49 473 0
-473 467 466 0
-473 467 49 0
-468 474 0
-467 -49 474 0
-474 468 467 0
-474 468 49 0
-469 475 0
-468 -49 475 0
-475 469 468 0
-475 469 49 0
-469 -49 476 0
-476 469 0
-476 49 0
-470 477 0
-50 477 0
-477 470 50 0
-471 478 0
-470 -50 478 0
-478 471 470 0
-478 471 50 0
-472 479 0
-471 -50 479 0
-479 472 471 0
-479 472 50 0
-473 480 0
-472 -50 480 0
-480 473 472 0
-480 473 50 0
-474 481 0
-473 -50 481 0
-481 474 473 0
-481 474 50 0
-475 482 0
-474 -50 482 0
-482 475 474 0
-482 475 50 0
-476 483 0
-475 -50 483 0
-483 476 475 0
-483 476 50 0
-476 -50 484 0
-484 476 0
-484 50 0
-477 485 0
-51 485 0
-485 477 51 0
-478 486 0
-477 -51 486 0
-486 478 477 0
-486 478 51 0
-479 487 0
-478 -51 487 0
-487 479 478 0
-487 479 51 0
-480 488 0
-479 -51 488 0
-488 480 479 0
-488 480 51 0
-481 489 0
-480 -51 489 0
-489 481 480 0
-489 481 51 0
-482 490 0
-481 -51 490 0
-490 482 481 0
-490 482 51 0
-483 491 0
-482 -51 491 0
-491 483 482 0
-491 483 51 0
-484 492 0
-483 -51 492 0
-492 484 483 0
-492 484 51 0
-485 493 0
-52 493 0
-493 485 52 0
-486 494 0
-485 -52 494 0
-494 486 485 0
-494 486 52 0
-487 495 0
-486 -52 495 0
-495 487 486 0
-495 487 52 0
-488 496 0
-487 -52 496 0
-496 488 487 0
-496 488 52 0
-489 497 0
-488 -52 497 0
-497 489 488 0
-497 489 52 0
-490 498 0
-489 -52 498 0
-498 490 489 0
-498 490 52 0
-491 499 0
-490 -52 499 0
-499 491 490 0
-499 491 52 0
-492 500 0
-491 -52 500 0
-500 492 491 0
-500 492 52 0
-493 501 0
-53 501 0
-501 493 53 0
-494 502 0
-493 -53 502 0
-502 494 493 0
-502 494 53 0
-495 503 0
-494 -53 503 0
-503 495 494 0
-503 495 53 0
-496 504 0
-495 -53 504 0
-504 496 495 0
-504 496 53 0
-497 505 0
-496 -53 505 0
-505 497 496 0
-505 497 53 0
-498 506 0
-497 -53 506 0
-506 498 497 0
-506 498 53 0
-499 507 0
-498 -53 507 0
-507 499 498 0
-507 499 53 0
-500 508 0
-499 -53 508 0
-508 500 499 0
-508 500 53 0
-501 509 0
-54 509 0
-509 501 54 0
-502 510 0
-501 -54 510 0
-510 502 501 0
-510 502 54 0
-503 511 0
-502 -54 511 0
-511 503 502 0
-511 503 54 0
-504 512 0
-503 -54 512 0
-512 504 503 0
-512 504 54 0
-505 513 0
-504 -54 513 0
-513 505 504 0
-513 505 54 0
-506 514 0
-505 -54 514 0
-514 506 505 0
-514 506 54 0
-507 515 0
-506 -54 515 0
-515 507 506 0
-515 507 54 0
-508 516 0
-507 -54 516 0
-516 508 507 0
-516 508 54 0
-509 517 0
-55 517 0
-517 509 55 0
-510 518 0
-509 -55 518 0
-518 510 509 0
-518 510 55 0
-511 519 0
-510 -55 519 0
-519 511 510 0
-519 511 55 0
-512 520 0
-511 -55 520 0
-520 512 511 0
-520 512 55 0
-513 521 0
-512 -55 521 0
-521 513 512 0
-521 513 55 0
-514 522 0
-513 -55 522 0
-522 514 513 0
-522 514 55 0
-515 523 0
-514 -55 523 0
-523 515 514 0
-523 515 55 0
-516 524 0
-515 -55 524 0
-524 516 515 0
-524 516 55 0
-517 525 0
-56 525 0
-525 517 56 0
-518 526 0
-517 -56 526 0
-526 518 517 0
-526 518 56 0
-519 527 0
-518 -56 527 0
-527 519 518 0
-527 519 56 0
-520 528 0
-519 -56 528 0
-528 520 519 0
-528 520 56 0
-521 529 0
-520 -56 529 0
-529 521 520 0
-529 521 56 0
-522 530 0
-521 -56 530 0
-530 522 521 0
-530 522 56 0
-523 531 0
-522 -56 531 0
-531 523 522 0
-531 523 56 0
-524 532 0
-523 -56 532 0
-532 524 523 0
-532 524 56 0
531 0
-532 0
-57 533 0
-533 57 0
-533 534 0
-58 534 0
-534 533 58 0
-533 -58 535 0
-535 533 0
-535 58 0
-534 536 0
-59 536 0
-536 534 59 0
-535 537 0
-534 -59 537 0
-537 535 534 0
-537 535 59 0
-535 -59 538 0
-538 535 0
-538 59 0
-536 539 0
-60 539 0
-539 536 60 0
-537 540 0
-536 -60 540 0
-540 537 536 0
-540 537 60 0
-538 541 0
-537 -60 541 0
-541 538 537 0
-541 538 60 0
-538 -60 542 0
-542 538 0
-542 60 0
-539 543 0
-61 543 0
-543 539 61 0
-540 544 0
-539 -61 544 0
-544 540 539 0
-544 540 61 0
-541 545 0
-540 -61 545 0
-545 541 540 0
-545 541 61 0
-542 546 0
-541 -61 546 0
-546 542 541 0
-546 542 61 0
-542 -61 547 0
-547 542 0
-547 61 0
-543 548 0
-62 548 0
-548 543 62 0
-544 549 0
-543 -62 549 0
-549 544 543 0
-549 544 62 0
-545 550 0
-544 -62 550 0
-550 545 544 0
-550 545 62 0
-546 551 0
-545 -62 551 0
-551 546 545 0
-551 546 62 0
-547 552 0
-546 -62 552 0
-552 547 546 0
-552 547 62 0
-547 -62 553 0
-553 547 0
-553 62 0
-548 554 0
-63 554 0
-554 548 63 0
-549 555 0
-548 -63 555 0
-555 549 548 0
-555 549 63 0
-550 556 0
-549 -63 556 0
-556 550 549 0
-556 550 63 0
-551 557 0
-550 -63 557 0
-557 551 550 0
-557 551 63 0
-552 558 0
-551 -63 558 0
-558 552 551 0
-558 552 63 0
-553 559 0
-552 -63 559 0
-559 553 552 0
-559 553 63 0
-553 -63 560 0
-560 553 0
-560 63 0
-554 561 0
-64 561 0
-561 554 64 0
-555 562 0
-554 -64 562 0
-562 555 554 0
-562 555 64 0
-556 563 0
-555 -64 563 0
-563 556 555 0
-563 556 64 0
-557 564 0
-556 -64 564 0
-564 557 556 0
-564 557 64 0
-558 565 0
-557 -64 565 0
-565 558 557 0
-565 558 64 0
-559 566 0
-558 -64 566 0
-566 559 558 0
-566 559 64 0
-560 567 0
-559 -64 567 0
-567 560 559 0
-567 560 64 0
-560 -64 568 0
-568 560 0
-568 64 0
-561 569 0
-65 569 0
-569 561 65 0
-562 570 0
-561 -65 570 0
-570 562 561 0
-570 562 65 0
-563 571 0
-562 -65 571 0
-571 563 562 0
-571 563 65 0
-564 572 0
-563 -65 572 0
-572 564 563 0
-572 564 65 0
-565 573 0
-564 -65 573 0
-573 565 564 0
-573 565 65 0
-566 574 0
-565 -65 574 0
-574 566 565 0
-574 566 65 0
-567 575 0
-566 -65 575 0
-575 567 566 0
-575 567 65 0
-568 576 0
-567 -65 576 0
-576 568 567 0
-576 568 65 0
-569 577 0
-66 577 0
-577 569 66 0
-570 578 0
-569 -66 578 0
-578 570 569 0
-578 570 66 0
-571 579 0
-570 -66 579 0
-579 571 570 0
-579 571 66 0
-572 580 0
-571 -66 580 0
-580 572 571 0
-580 572 66 0
-573 581 0
-572 -66 581 0
-581 573 572 0
-581 573 66 0
-574 582 0
-573 -66 582 0
-582 574 573 0
-582 574 66 0
-575 583 0
-574 -66 583 0
-583 575 574 0
-583 575 66 0
-576 584 0
-575 -66 584 0
-584 576 575 0
-584 576 66 0
-577 585 0
-67 585 0
-585 577 67 0
-578 586 0
-577 -67 586 0
-586 578 577 0
-586 578 67 0
-579 587 0
-578 -67 587 0
-587 579 578 0
-587 579 67 0
-580 588 0
-579 -67 588 0
-588 580 579 0
-588 580 67 0
-581 589 0
-580 -67 589 0
-589 581 580 0
-589 581 67 0
-582 590 0
-581 -67 590 0
-590 582 581 0
-590 582 67 0
-583 591 0
-582 -67 591 0
-591 583 582 0
-591 583 67 0
-584 592 0
-583 -67 592 0
-592 584 583 0
-592 584 67 0
-585 593 0
-68 593 0
-593 585 68 0
-586 594 0
-585 -68 594 0
-594 586 585 0
-594 586 68 0
-587 595 0
-586 -68 595 0
-595 587 586 0
-595 587 68 0
-588 596 0
-587 -68 596 0
-596 588 587 0
-596 588 68 0
-589 597 0
-588 -68 597 0
-597 589 588 0
-597 589 68 0
-590 598 0
-589 -68 598 0
-598 590 589 0
-598 590 68 0
-591 599 0
-590 -68 599 0
-599 591 590 0
-599 591 68 0
-592 600 0
-591 -68 600 0
-600 592 591 0
-600 592 68 0
-593 601 0
-69 601 0
-601 593 69 0
-594 602 0
-593 -69 602 0
-602 594 593 0
-602 594 69 0
-595 603 0
-594 -69 603 0
-603 595 594 0
-603 595 69 0
-596 604 0
-595 -69 604 0
-604 596 595 0
-604 596 69 0
-597 605 0
-596 -69 605 0
-605 597 596 0
-605 597 69 0
-598 606 0
-597 -69 606 0
-606 598 597 0
-606 598 69 0
-599 607 0
-598 -69 607 0
-607 599 598 0
-607 599 69 0
-600 608 0
-599 -69 608 0
-608 600 599 0
-608 600 69 0
-601 609 0
-70 609 0
-609 601 70 0
-602 610 0
-601 -70 610 0
-610 602 601 0
-610 602 70 0
-603 611 0
-602 -70 611 0
-611 603 602 0
-611 603 70 0
-604 612 0
-603 -70 612 0
-612 604 603 0
-612 604 70 0
-605 613 0
-604 -70 613 0
-613 605 604 0
-613 605 70 0
-606 614 0
-605 -70 614 0
-614 606 605 0
-614 606 70 0
-607 615 0
-606 -70 615 0
-615 607 606 0
-615 607 70 0
-608 616 0
-607 -70 616 0
-616 608 607 0
-616 608 70 0
615 0
-616 0
-71 617 0
-617 71 0
-617 618 0
-72 618 0
-618 617 72 0
-617 -72 619 0
-619 617 0
-619 72 0
-618 620 0
-73 620 0
-620 618 73 0
-619 621 0
-618 -73 621 0
-621 619 618 0
-621 619 73 0
-619 -73 622 0
-622 619 0
-622 73 0
-620 623 0
-74 623 0
-623 620 74 0
-621 624 0
-620 -74 624 0
-624 621 620 0
-624 621 74 0
-622 625 0
-621 -74 625 0
-625 622 621 0
-625 622 74 0
-622 -74 626 0
-626 622 0
-626 74 0
-623 627 0
-75 627 0
-627 623 75 0
-624 628 0
-623 -75 628 0
-628 624 623 0
-628 624 75 0
-625 629 0
-624 -75 629 0
-629 625 624 0
-629 625 75 0
-626 630 0
-625 -75 630 0
-630 626 625 0
-630 626 75 0
-626 -75 631 0
-631 626 0
-631 75 0
-627 632 0
-76 632 0
-632 627 76 0
-628 633 0
-627 -76 633 0
-633 628 627 0
-633 628 76 0
-629 634 0
-628 -76 634 0
-634 629 628 0
-634 629 76 0
-630 635 0
-629 -76 635 0
-635 630 629 0
-635 630 76 0
-631 636 0
-630 -76 636 0
-636 631 630 0
-636 631 76 0
-631 -76 637 0
-637 631 0
-637 76 0
-632 638 0
-77 638 0
-638 632 77 0
-633 639 0
-632 -77 639 0
-639 633 632 0
-639 633 77 0
-634 640 0
-633 -77 640 0
-640 634 633 0
-640 634 77 0
-635 641 0
-634 -77 641 0
-641 635 634 0
-641 635 77 0
-636 642 0
-635 -77 642 0
-642 636 635 0
-642 636 77 0
-637 643 0
-636 -77 643 0
-643 637 636 0
-643 637 77 0
-637 -77 644 0
-644 637 0
-644 77 0
-638 645 0
-78 645 0
-645 638 78 0
-639 646 0
-638 -78 646 0
-646 639 638 0
-646 639 78 0
-640 647 0
-639 -78 647 0
-647 640 639 0
-647 640 78 0
-641 648 0
-640 -78 648 0
-648 641 640 0
-648 641 78 0
-642 649 0
-641 -78 649 0
-649 642 641 0
-649 642 78 0
-643 650 0
-642 -78 650 0
-650 643 642 0
-650 643 78 0
-644 651 0
-643 -78 651 0
-651 644 643 0
-651 644 78 0
-644 -78 652 0
-652 644 0
-652 78 0
-645 653 0
-79 653 0
-653 645 79 0
-646 654 0
-645 -79 654 0
-654 646 645 0
-654 646 79 0
-647 655 0
-646 -79 655 0
-655 647 646 0
-655 647 79 0
-648 656 0
-647 -79 656 0
-656 648 647 0
-656 648 79 0
-649 657 0
-648 -79 657 0
-657 649 648 0
-657 649 79 0
-650 658 0
-649 -79 658 0
-658 650 649 0
-658 650 79 0
-651 659 0
-650 -79 659 0
-659 651 650 0
-659 651 79 0
-652 660 0
-651 -79 660 0
-660 652 651 0
-660 652 79 0
-653 661 0
-80 661 0
-661 653 80 0
-654 662 0
-653 -80 662 0
-662 654 653 0
-662 654 80 0
-655 663 0
-654 -80 663 0
-663 655 654 0
-663 655 80 0
-656 664 0
-655 -80 664 0
-664 656 655 0
-664 656 80 0
-657 665 0
-656 -80 665 0
-665 657 656 0
-665 657 80 0
-658 666 0
-657 -80 666 0
-666 658 657 0
-666 658 80 0
-659 667 0
-658 -80 667 0
-667 659 658 0
-667 659 80 0
-660 668 0
-659 -80 668 0
-668 660 659 0
-668 660 80 0
-661 669 0
-81 669 0
-669 661 81 0
-662 670 0
-661 -81 670 0
-670 662 661 0
-670 662 81 0
-663 671 0
-662 -81 671 0
-671 663 662 0
-671 663 81 0
-664 672 0
-663 -81 672 0
-672 664 663 0
-672 664 81 0
-665 673 0
-664 -81 673 0
-673 665 664 0
-673 665 81 0
-666 674 0
-665 -81 674 0
-674 666 665 0
-674 666 81 0
-667 675 0
-666 -81 675 0
-675 667 666 0
-675 667 81 0
-668 676 0
-667 -81 676 0
-676 668 667 0
-676 668 81 0
-669 677 0
-82 677 0
-677 669 82 0
-670 678 0
-669 -82 678 0
-678 670 669 0
-678 670 82 0
-671 679 0
-670 -82 679 0
-679 671 670 0
-679 671 82 0
-672 680 0
-671 -82 680 0
-680 672 671 0
-680 672 82 0
-673 681 0
-672 -82 681 0
-681 673 672 0
-681 673 82 0
-674 682 0
-673 -82 682 0
-682 674 673 0
-682 674 82 0
-675 683 0
-674 -82 683 0
-683 675 674 0
-683 675 82 0
-676 684 0
-675 -82 684 0
-684 676 675 0
-684 676 82 0
-677 685 0
-83 685 0
-685 677 83 0
-678 686 0
-677 -83 686 0
-686 678 677 0
-686 678 83 0
-679 687 0
-678 -83 687 0
-687 679 678 0
-687 679 83 0
-680 688 0
-679 -83 688 0
-688 680 679 0
-688 680 83 0
-681 689 0
-680 -83 689 0
-689 681 680 0
-689 681 83 0
-682 690 0
-681 -83 690 0
-690 682 681 0
-690 682 83 0
-683 691 0
-682 -83 691 0
-691 683 682 0
-691 683 83 0
-684 692 0
-683 -83 692 0
-692 684 683 0
-692 684 83 0
-685 693 0
-84 693 0
-693 685 84 0
-686 694 0
-685 -84 694 0
-694 686 685 0
-694 686 84 0
-687 695 0
-686 -84 695 0
-695 687 686 0
-695 687 84 0
-688 696 0
-687 -84 696 0
-696 688 687 0
-696 688 84 0
-689 697 0
-688 -84 697 0
-697 689 688 0
-697 689 84 0
-690 698 0
-689 -84 698 0
-698 690 689 0
-698 690 84 0
-691 699 0
-690 -84 699 0
-699 691 690 0
-699 691 84 0
-692 700 0
-691 -84 700 0
-700 692 691 0
-700 692 84 0
699 0
-700 0
-85 701 0
-701 85 0
-701 702 0
-86 702 0
-702 701 86 0
-701 -86 703 0
-703 701 0
-703 86 0
-702 704 0
-87 704 0
-704 702 87 0
-703 705 0
-702 -87 705 0
-705 703 702 0
-705 703 87 0
-703 -87 706 0
-706 703 0
-706 87 0
-704 707 0
-88 707 0
-707 704 88 0
-705 708 0
-704 -88 708 0
-708 705 704 0
-708 705 88 0
-706 709 0
-705 -88 709 0
-709 706 705 0
-709 706 88 0
-706 -88 710 0
-710 706 0
-710 88 0
-707 711 0
-89 711 0
-711 707 89 0
-708 712 0
-707 -89 712 0
-712 708 707 0
-712 708 89 0
-709 713 0
-708 -89 713 0
-713 709 708 0
-713 709 89 0
-710 714 0
-709 -89 714 0
-714 710 709 0
-714 710 89 0
-710 -89 715 0
-715 710 0
-715 89 0
-711 716 0
-90 716 0
-716 711 90 0
-712 717 0
-711 -90 717 0
-717 712 711 0
-717 712 90 0
-713 718 0
-712 -90 718 0
-718 713 712 0
-718 713 90 0
-714 719 0
-713 -90 719 0
-719 714 713 0
-719 714 90 0
-715 720 0
-714 -90 720 0
-720 715 714 0
-720 715 90 0
-715 -90 721 0
-721 715 0
-721 90 0
-716 722 0
-91 722 0
-722 716 91 0
-717 723 0
-716 -91 723 0
-723 717 716 0
-723 717 91 0
-718 724 0
-717 -91 724 0
-724 718 717 0
-724 718 91 0
-719 725 0
-718 -91 725 0
-725 719 718 0
-725 719 91 0
-720 726 0
-719 -91 726 0
-726 720 719 0
-726 720 91 0
-721 727 0
-720 -91 727 0
-727 721 720 0
-727 721 91 0
-721 -91 728 0
-728 721 0
-728 91 0
-722 729 0
-92 729 0
-729 722 92 0
-723 730 0
-722 -92 730 0
-730 723 722 0
-730 723 92 0
-724 731 0
-723 -92 731 0
-731 724 723 0
-731 724 92 0
-725 732 0
-724 -92 732 0
-732 725 724 0
-732 725 92 0
-726 733 0
-725 -92 733 0
-733 726 725 0
-733 726 92 0
-727 734 0
-726 -92 734 0
-734 727 726 0
-734 727 92 0
-728 735 0
-727 -92 735 0
-735 728 727 0
-735 728 92 0
-728 -92 736 0
-736 728 0
-736 92 0
-729 737 0
-93 737 0
-737 729 93 0
-730 738 0
-729 -93 738 0
-738 730 729 0
-738 730 93 0
-731 739 0
-730 -93 739 0
-739 731 730 0
-739 731 93 0
-732 740 0
-731 -93 740 0
-740 732 731 0
-740 732 93 0
-733 741 0
-732 -93 741 0
-741 733 732 0
-741 733 93 0
-734 742 0
-733 -93 742 0
-742 734 733 0
-742 734 93 0
-735 743 0
-734 -93 743 0
-743 735 734 0
-743 735 93 0
-736 744 0
-735 -93 744 0
-744 736 735 0
-744 736 93 0
-737 745 0
-94 745 0
-745 737 94 0
-738 746 0
-737 -94 746 0
-746 738 737 0
-746 738 94 0
-739 747 0
-738 -94 747 0
-747 739 738 0
-747 739 94 0
-740 748 0
-739 -94 748 0
-748 740 739 0
-748 740 94 0
-741 749 0
-740 -94 749 0
-749 741 740 0
-749 741 94 0
-742 750 0
-741 -94 750 0
-750 742 741 0
-750 742 94 0
-743 751 0
-742 -94 751 0
-751 743 742 0
-751 743 94 0
-744 752 0
-743 -94 752 0
-752 744 743 0
-752 744 94 0
-745 753 0
-95 753 0
-753 745 95 0
-746 754 0
-745 -95 754 0
-754 746 745 0
-754 746 95 0
-747 755 0
-746 -95 755 0
-755 747 746 0
-755 747 95 0
-748 756 0
-747 -95 756 0
-756 748 747 0
-756 748 95 0
-749 757 0
-748 -95 757 0
-757 749 748 0
-757 749 95 0
-750 758 0
-749 -95 758 0
-758 750 749 0
-758 750 95 0
-751 759 0
-750 -95 759 0
-759 751 750 0
-759 751 95 0
-752 760 0
-751 -95 760 0
-760 752 751 0
-760 752 95 0
-753 761 0
-96 761 0
-761 753 96 0
-754 762 0
-753 -96 762 0
-762 754 753 0
-762 754 96 0
-755 763 0
-754 -96 763 0
-763 755 754 0
-763 755 96 0
-756 764 0
-755 -96 764 0
-764 756 755 0
-764 756 96 0
-757 765 0
-756 -96 765 0
-765 757 756 0
-765 757 96 0
-758 766 0
-757 -96 766 0
-766 758 757 0
-766 758 96 0
-759 767 0
-758 -96 767 0
-767 759 758 0
-767 759 96 0
-760 768 0
-759 -96 768 0
-768 760 759 0
-768 760 96 0
-761 769 0
-97 769 0
-769 761 97 0
-762 770 0
-761 -97 770 0
-770 762 761 0
-770 762 97 0
-763 771 0
-762 -97 771 0
-771 763 762 0
-771 763 97 0
-764 772 0
-763 -97 772 0
-772 764 763 0
-772 764 97 0
-765 773 0
-764 -97 773 0
-773 765 764 0
-773 765 97 0
-766 774 0
-765 -97 774 0
-774 766 765 0
-774 766 97 0
-767 775 0
-766 -97 775 0
-775 767 766 0
-775 767 97 0
-768 776 0
-767 -97 776 0
-776 768 767 0
-776 768 97 0
-769 777 0
-98 777 0
-777 769 98 0
-770 778 0
-769 -98 778 0
-778 770 769 0
-778 770 98 0
-771 779 0
-770 -98 779 0
-779 771 770 0
-779 771 98 0
-772 780 0
-771 -98 780 0
-780 772 771 0
-780 772 98 0
-773 781 0
-772 -98 781 0
-781 773 772 0
-781 773 98 0
-774 782 0
-773 -98 782 0
-782 774 773 0
-782 774 98 0
-775 783 0
-774 -98 783 0
-783 775 774 0
-783 775 98 0
-776 784 0
-775 -98 784 0
-784 776 775 0
-784 776 98 0
783 0
-784 0
-99 785 0
-785 99 0
-785 786 0
-100 786 0
-786 785 100 0
-785 -100 787 0
-787 785 0
-787 100 0
-786 788 0
-101 788 0
-788 786 101 0
-787 789 0
-786 -101 789 0
-789 787 786 0
-789 787 101 0
-787 -101 790 0
-790 787 0
-790 101 0
-788 791 0
-102 791 0
-791 788 102 0
-789 792 0
-788 -102 792 0
-792 789 788 0
-792 789 102 0
-790 793 0
-789 -102 793 0
-793 790 789 0
-793 790 102 0
-790 -102 794 0
-794 790 0
-794 102 0
-791 795 0
-103 795 0
-795 791 103 0
-792 796 0
-791 -103 796 0
-796 792 791 0
-796 792 103 0
-793 797 0
-792 -103 797 0
-797 793 792 0
-797 793 103 0
-794 798 0
-793 -103 798 0
-798 794 793 0
-798 794 103 0
-794 -103 799 0
-799 794 0
-799 103 0
-795 800 0
-104 800 0
-800 795 104 0
-796 801 0
-795 -104 801 0
-801 796 795 0
-801 796 104 0
-797 802 0
-796 -104 802 0
-802 797 796 0
-802 797 104 0
-798 803 0
-797 -104 803 0
-803 798 797 0
-803 798 104 0
-799 804 0
-798 -104 804 0
-804 799 798 0
-804 799 104 0
-799 -104 805 0
-805 799 0
-805 104 0
-800 806 0
-105 806 0
-806 800 105 0
-801 807 0
-800 -105 807 0
-807 801 800 0
-807 801 105 0
-802 808 0
-801 -105 808 0
-808 802 801 0
-808 802 105 0
-803 809 0
-802 -105 809 0
-809 803 802 0
-809 803 105 0
-804 810 0
-803 -105 810 0
-810 804 803 0
-810 804 105 0
-805 811 0
-804 -105 811 0
-811 805 804 0
-811 805 105 0
-805 -105 812 0
-812 805 0
-812 105 0
-806 813 0
-106 813 0
-813 806 106 0
-807 814 0
-806 -106 814 0
-814 807 806 0
-814 807 106 0
-808 815 0
-807 -106 815 0
-815 808 807 0
-815 808 106 0
-809 816 0
-808 -106 816 0
-816 809 808 0
-816 809 106 0
-810 817 0
-809 -106 817 0
-817 810 809 0
-817 810 106 0
-811 818 0
-810 -106 818 0
-818 811 810 0
-818 811 106 0
-812 819 0
-811 -106 819 0
-819 812 811 0
-819 812 106 0
-812 -106 820 0
-820 812 0
-820 106 0
-813 821 0
-107 821 0
-821 813 107 0
-814 822 0
-813 -107 822 0
-822 814 813 0
-822 814 107 0
-815 823 0
-814 -107 823 0
-823 815 814 0
-823 815 107 0
-816 824 0
-815 -107 824 0
-824 816 815 0
-824 816 107 0
-817 825 0
-816 -107 825 0
-825 817 816 0
-825 817 107 0
-818 826 0
-817 -107 826 0
-826 818 817 0
-826 818 107 0
-819 827 0
-818 -107 827 0
-827 819 818 0
-827 819 107 0
-820 828 0
-819 -107 828 0
-828 820 819 0
-828 820 107 0
-821 829 0
-108 829 0
-829 821 108 0
-822 830 0
-821 -108 830 0
-830 822 821 0
-830 822 108 0
-823 831 0
-822 -108 831 0
-831 823 822 0
-831 823 108 0
-824 832 0
-823 -108 832 0
-832 824 823 0
-832 824 108 0
-825 833 0
-824 -108 833 0
-833 825 824 0
-833 825 108 0
-826 834 0
-825 -108 834 0
-834 826 825 0
-834 826 108 0
-827 835 0
-826 -108 835 0
-835 827 826 0
-835 827 108 0
-828 836 0
-827 -108 836 0
-836 828 827 0
-836 828 108 0
-829 837 0
-109 837 0
-837 829 109 0
-830 838 0
-829 -109 838 0
-838 830 829 0
-838 830 109 0
-831 839 0
-830 -109 839 0
-839 831 830 0
-839 831 109 0
-832 840 0
-831 -109 840 0
-840 832 831 0
-840 832 109 0
-833 841 0
-832 -109 841 0
-841 833 832 0
-841 833 109 0
-834 842 0
-833 -109 842 0
-842 834 833 0
-842 834 109 0
-835 843 0
-834 -109 843 0
-843 835 834 0
-843 835 109 0
-836 844 0
-835 -109 844 0
-844 836 835 0
-844 836 109 0
-837 845 0
-110 845 0
-845 837 110 0
-838 846 0
-837 -110 846 0
-846 838 837 0
-846 838 110 0
-839 847 0
-838 -110 847 0
-847 839 838 0
-847 839 110 0
-840 848 0
-839 -110 848 0
-848 840 839 0
-848 840 110 0
-841 849 0
-840 -110 849 0
-849 841 840 0
-849 841 110 0
-842 850 0
-841 -110 850 0
-850 842 841 0
-850 842 110 0
-843 851 0
-842 -110 851 0
-851 843 842 0
-851 843 110 0
-844 852 0
-843 -110 852 0
-852 844 843 0
-852 844 110 0
-845 853 0
-111 853 0
-853 845 111 0
-846 854 0
-845 -111 854 0
-854 846 845 0
-854 846 111 0
-847 855 0
-846 -111 855 0
-855 847 846 0
-855 847 111 0
-848 856 0
-847 -111 856 0
-856 848 847 0
-856 848 111 0
-849 857 0
-848 -111 857 0
-857 849 848 0
-857 849 111 0
-850 858 0
-849 -111 858 0
-858 850 849 0
-858 850 111 0
-851 859 0
-850 -111 859 0
-859 851 850 0
-859 851 111 0
-852 860 0
-851 -111 860 0
-860 852 851 0
-860 852 111 0
-853 861 0
-112 861 0
-861 853 112 0
-854 862 0
-853 -112 862 0
-862 854 853 0
-862 854 112 0
-855 863 0
-854 -112 863 0
-863 855 854 0
-863 855 112 0
-856 864 0
-855 -112 864 0
-864 856 855 0
-864 856 112 0
-857 865 0
-856 -112 865 0
-865 857 856 0
-865 857 112 0
-858 866 0
-857 -112 866 0
-866 858 857 0
-866 858 112 0
-859 867 0
-858 -112 867 0
-867 859 858 0
-867 859 112 0
-860 868 0
-859 -112 868 0
-868 860 859 0
-868 860 112 0
867 0
-868 0
-113 869 0
-869 113 0
-869 870 0
-114 870 0
-870 869 114 0
-869 -114 871 0
-871 869 0
-871 114 0
-870 872 0
-115 872 0
-872 870 115 0
-871 873 0
-870 -115 873 0
-873 871 870 0
-873 871 115 0
-871 -115 874 0
-874 871 0
-874 115 0
-872 875 0
-116 875 0
-875 872 116 0
-873 876 0
-872 -116 876 0
-876 873 872 0
-876 873 116 0
-874 877 0
-873 -116 877 0
-877 874 873 0
-877 874 116 0
-874 -116 878 0
-878 874 0
-878 116 0
-875 879 0
-117 879 0
-879 875 117 0
-876 880 0
-875 -117 880 0
-880 876 875 0
-880 876 117 0
-877 881 0
-876 -117 881 0
-881 877 876 0
-881 877 117 0
-878 882 0
-877 -117 882 0
-882 878 877 0
-882 878 117 0
-878 -117 883 0
-883 878 0
-883 117 0
-879 884 0
-118 884 0
-884 879 118 0
-880 885 0
-879 -118 885 0
-885 880 879 0
-885 880 118 0
-881 886 0
-880 -118 886 0
-886 881 880 0
-886 881 118 0
-882 887 0
-881 -118 887 0
-887 882 881 0
-887 882 118 0
-883 888 0
-882 -118 888 0
-888 883 882 0
-888 883 118 0
-883 -118 889 0
-889 883 0
-889 118 0
-884 890 0
-119 890 0
-890 884 119 0
-885 891 0
-884 -119 891 0
-891 885 884 0
-891 885 119 0
-886 892 0
-885 -119 892 0
-892 886 885 0
-892 886 119 0
-887 893 0
-886 -119 893 0
-893 887 886 0
-893 887 119 0
-888 894 0
-887 -119 894 0
-894 888 887 0
-894 888 119 0
-889 895 0
-888 -119 895 0
-895 889 888 0
-895 889 119 0
-889 -119 896 0
-896 889 0
-896 119 0
-890 897 0
-120 897 0
-897 890 120 0
-891 898 0
-890 -120 898 0
-898 891 890 0
-898 891 120 0
-892 899 0
-891 -120 899 0
-899 892 891 0
-899 892 120 0
-893 900 0
-892 -120 900 0
-900 893 892 0
-900 893 120 0
-894 901 0
-893 -120 901 0
-901 894 893 0
-901 894 120 0
-895 902 0
-894 -120 902 0
-902 895 894 0
-902 895 120 0
-896 903 0
-895 -120 903 0
-903 896 895 0
-903 896 120 0
-896 -120 904 0
-904 896 0
-904 120 0
-897 905 0
-121 905 0
-905 897 121 0
-898 906 0
-897 -121 906 0
-906 898 897 0
-906 898 121 0
-899 907 0
-898 -121 907 0
-907 899 898 0
-907 899 121 0
-900 908 0
-899 -121 908 0
-908 900 899 0
-908 900 121 0
-901 909 0
-900 -121 909 0
-909 901 900 0
-909 901 121 0
-902 910 0
-901 -121 910 0
-910 902 901 0
-910 902 121 0
-903 911 0
-902 -121 911 0
-911 903 902 0
-911 903 121 0
-904 912 0
-903 -121 912 0
-912 904 903 0
-912 904 121 0
-905 913 0
-122 913 0
-913 905 122 0
-906 914 0
-905 -122 914 0
-914 906 905 0
-914 906 122 0
-907 915 0
-906 -122 915 0
-915 907 906 0
-915 907 122 0
-908 916 0
-907 -122 916 0
-916 908 907 0
-916 908 122 0
-909 917 0
-908 -122 917 0
-917 909 908 0
-917 909 122 0
-910 918 0
-909 -122 918 0
-918 910 909 0
-918 910 122 0
-911 919 0
-910 -122 919 0
-919 911 910 0
-919 911 122 0
-912 920 0
-911 -122 920 0
-920 912 911 0
-920 912 122 0
-913 921 0
-123 921 0
-921 913 123 0
-914 922 0
-913 -123 922 0
-922 914 913 0
-922 914 123 0
-915 923 0
-914 -123 923 0
-923 915 914 0
-923 915 123 0
-916 924 0
-915 -123 924 0
-924 916 915 0
-924 916 123 0
-917 925 0
-916 -123 925 0
-925 917 916 0
-925 917 123 0
-918 926 0
-917 -123 926 0
-926 918 917 0
-926 918 123 0
-919 927 0
-918 -123 927 0
-927 919 918 0
-927 919 123 0
-920 928 0
-919 -123 928 0
-928 920 919 0
-928 920 123 0
-921 929 0
-124 929 0
-929 921 124 0
-922 930 0
-921 -124 930 0
-930 922 921 0
-930 922 124 0
-923 931 0
-922 -124 931 0
-931 923 922 0
-931 923 124 0
-924 932 0
-923 -124 932 0
-932 924 923 0
-932 924 124 0
-925 933 0
-924 -124 933 0
-933 925 924 0
-933 925 124 0
-926 934 0
-925 -124 934 0
-934 926 925 0
-934 926 124 0
-927 935 0
-926 -124 935 0
-935 927 926 0
-935 927 124 0
-928 936 0
-927 -124 936 0
-936 928 927 0
-936 928 124 0
-929 937 0
-125 937 0
-937 929 125 0
-930 938 0
-929 -125 938 0
-938 930 929 0
-938 930 125 0
-931 939 0
-930 -125 939 0
-939 931 930 0
-939 931 125 0
-932 940 0
-931 -125 940 0
-940 932 931 0
-940 932 125 0
-933 941 0
-932 -125 941 0
-941 933 932 0
-941 933 125 0
-934 942 0
-933 -125 942 0
-942 934 933 0
-942 934 125 0
-935 943 0
-934 -125 943 0
-943 935 934 0
-943 935 125 0
-936 944 0
-935 -125 944 0
-944 936 935 0
-944 936 125 0
-937 945 0
-126 945 0
-945 937 126 0
-938 946 0
-937 -126 946 0
-946 938 937 0
-946 938 126 0
-939 947 0
-938 -126 947 0
-947 939 938 0
-947 939 126 0
-940 948 0
-939 -126 948 0
-948 940 939 0
-948 940 126 0
-941 949 0
-940 -126 949 0
-949 941 940 0
-949 941 126 0
-942 950 0
-941 -126 950 0
-950 942 941 0
-950 942 126 0
-943 951 0
-942 -126 951 0
-951 943 942 0
-951 943 126 0
-944 952 0
-943 -126 952 0
-952 944 943 0
-952 944 126 0
951 0
-952 0
-127 953 0
-953 127 0
-953 954 0
-128 954 0
-954 953 128 0
-953 -128 955 0
-955 953 0
-955 128 0
-954 956 0
-129 956 0
-956 954 129 0
-955 957 0
-954 -129 957 0
-957 955 954 0
-957 955 129 0
-955 -129 958 0
-958 955 0
-958 129 0
-956 959 0
-130 959 0
-959 956 130 0
-957 960 0
-956 -130 960 0
-960 957 956 0
-960 957 130 0
-958 961 0
-957 -130 961 0
-961 958 957 0
-961 958 130 0
-958 -130 962 0
-962 958 0
-962 130 0
-959 963 0
-131 963 0
-963 959 131 0
-960 964 0
-959 -131 964 0
-964 960 959 0
-964 960 131 0
-961 965 0
-960 -131 965 0
-965 961 960 0
-965 961 131 0
-962 966 0
-961 -131 966 0
-966 962 961 0
-966 962 131 0
-962 -131 967 0
-967 962 0
-967 131 0
-963 968 0
-132 968 0
-968 963 132 0
-964 969 0
-963 -132 969 0
-969 964 963 0
-969 964 132 0
-965 970 0
-964 -132 970 0
-970 965 964 0
-970 965 132 0
-966 971 0
-965 -132 971 0
-971 966 965 0
-971 966 132 0
-967 972 0
-966 -132 972 0
-972 967 966 0
-972 967 132 0
-967 -132 973 0
-973 967 0
-973 132 0
-968 974 0
-133 974 0
-974 968 133 0
-969 975 0
-968 -133 975 0
-975 969 968 0
-975 969 133 0
-970 976 0
-969 -133 976 0
-976 970 969 0
-976 970 133 0
-971 977 0
-970 -133 977 0
-977 971 970 0
-977 971 133 0
-972 978 0
-971 -133 978 0
-978 972 971 0
-978 972 133 0
-973 979 0
-972 -133 979 0
-979 973 972 0
-979 973 133 0
-973 -133 980 0
-980 973 0
-980 133 0
-974 981 0
-134 981 0
-981 974 134 0
-975 982 0
-974 -134 982 0
-982 975 974 0
-982 975 134 0
-976 983 0
-975 -134 983 0
-983 976 975 0
-983 976 134 0
-977 984 0
-976 -134 984 0
-984 977 976 0
-984 977 134 0
-978 985 0
-977 -134 985 0
-985 978 977 0
-985 978 134 0
-979 986 0
-978 -134 986 0
-986 979 978 0
-986 979 134 0
-980 987 0
-979 -134 987 0
-987 980 979 0
-987 980 134 0
-980 -134 988 0
-988 980 0
-988 134 0
-981 989 0
-135 989 0
-989 981 135 0
-982 990 0
-981 -135 990 0
-990 982 981 0
-990 982 135 0
-983 991 0
-982 -135 991 0
-991 983 982 0
-991 983 135 0
-984 992 0
-983 -135 992 0
-992 984 983 0
-992 984 135 0
-985 993 0
-984 -135 993 0
-993 985 984 0
-993 985 135 0
-986 994 0
-985 -135 994 0
-994 986 985 0
-994 986 135 0
-987 995 0
-986 -135 995 0
-995 987 986 0
-995 987 135 0
-988 996 0
-987 -135 996 0
-996 988 987 0
-996 988 135 0
-989 997 0
-136 997 0
-997 989 136 0
-990 998 0
-989 -136 998 0
-998 990 989 0
-998 990 136 0
-991 999 0
-990 -136 999 0
-999 991 990 0
-999 991 136 0
-992 1000 0
-991 -136 1000 0
-1000 992 991 0
-1000 992 136 0
-993 1001 0
-992 -136 1001 0
-1001 993 992 0
-1001 993 136 0
-994 1002 0
-993 -136 1002 0
-1002 994 993 0
-1002 994 136 0
-995 1003 0
-994 -136 1003 0
-1003 995 994 0
-1003 995 136 0
-996 1004 0
-995 -136 1004 0
-1004 996 995 0
-1004 996 136 0
-997 1005 0
-137 1005 0
-1005 997 137 0
-998 1006 0
-997 -137 1006 0
-1006 998 997 0
-1006 998 137 0
-999 1007 0
-998 -137 1007 0
-1007 999 998 0
-1007 999 137 0
-1000 1008 0
-999 -137 1008 0
-1008 1000 999 0
-1008 1000 137 0
-1001 1009 0
-1000 -137 1009 0
-1009 1001 1000 0
-1009 1001 137 0
-1002 1010 0
-1001 -137 1010 0
-1010 1002 1001 0
-1010 1002 137 0
-1003 1011 0
-1002 -137 1011 0
-1011 1003 1002 0
-1011 1003 137 0
-1004 1012 0
-1003 -137 1012 0
-1012 1004 1003 0
-1012 1004 137 0
-1005 1013 0
-138 1013 0
-1013 1005 138 0
-1006 1014 0
-1005 -138 1014 0
-1014 1006 1005 0
-1014 1006 138 0
-1007 1015 0
-1006 -138 1015 0
-1015 1007 1006 0
-1015 1007 138 0
-1008 1016 0
-1007 -138 1016 0
-1016 1008 1007 0
-1016 1008 138 0
-1009 1017 0
-1008 -138 1017 0
-1017 1009 1008 0
-1017 1009 138 0
-1010 1018 0
-1009 -138 1018 0
-1018 1010 1009 0
-1018 1010 138 0
-1011 1019 0
-1010 -138 1019 0
-1019 1011 1010 0
-1019 1011 138 0
-1012 1020 0
-1011 -138 1020 0
-1020 1012 1011 0
-1020 1012 138 0
-1013 1021 0
-139 1021 0
-1021 1013 139 0
-1014 1022 0
-1013 -139 1022 0
-1022 1014 1013 0
-1022 1014 139 0
-1015 1023 0
-1014 -139 1023 0
-1023 1015 1014 0
-1023 1015 139 0
-1016 1024 0
-1015 -139 1024 0
-1024 1016 1015 0
-1024 1016 139 0
-1017 1025 0
-1016 -139 1025 0
-1025 1017 1016 0
-1025 1017 139 0
-1018 1026 0
-1017 -139 1026 0
-1026 1018 1017 0
-1026 1018 139 0
-1019 1027 0
-1018 -139 1027 0
-1027 1019 1018 0
-1027 1019 139 0
-1020 1028 0
-1019 -139 1028 0
-1028 1020 1019 0
-1028 1020 139 0
-1021 1029 0
-140 1029 0
-1029 1021 140 0
-1022 1030 0
-1021 -140 1030 0
-1030 1022 1021 0
-1030 1022 140 0
-1023 1031 0
-1022 -140 1031 0
-1031 1023 1022 0
-1031 1023 140 0
-1024 1032 0
-1023 -140 1032 0
-1032 1024 1023 0
-1032 1024 140 0
-1025 1033 0
-1024 -140 1033 0
-1033 1025 1024 0
-1033 1025 140 0
-1026 1034 0
-1025 -140 1034 0
-1034 1026 1025 0
-1034 1026 140 0
-1027 1035 0
-1026 -140 1035 0
-1035 1027 1026 0
-1035 1027 140 0
-1028 1036 0
-1027 -140 1036 0
-1036 1028 1027 0
-1036 1028 140 0
1035 0
-1036 0
-141 1037 0
-1037 141 0
-1037 1038 0
-142 1038 0
-1038 1037 142 0
-1037 -142 1039 0
-1039 1037 0
-1039 142 0
-1038 1040 0
-143 1040 0
-1040 1038 143 0
-1039 1041 0
-1038 -143 1041 0
-1041 1039 1038 0
-1041 1039 143 0
-1039 -143 1042 0
-1042 1039 0
-1042 143 0
-1040 1043 0
-144 1043 0
-1043 1040 144 0
-1041 1044 0
-1040 -144 1044 0
-1044 1041 1040 0
-1044 1041 144 0
-1042 1045 0
-1041 -144 1045 0
-1045 1042 1041 0
-1045 1042 144 0
-1042 -144 1046 0
-1046 1042 0
-1046 144 0
-1043 1047 0
-145 1047 0
-1047 1043 145 0
-1044 1048 0
-1043 -145 1048 0
-1048 1044 1043 0
-1048 1044 145 0
-1045 1049 0
-1044 -145 1049 0
-1049 1045 1044 0
-1049 1045 145 0
-1046 1050 0
-1045 -145 1050 0
-1050 1046 1045 0
-1050 1046 145 0
-1046 -145 1051 0
-1051 1046 0
-1051 145 0
-1047 1052 0
-146 1052 0
-1052 1047 146 0
-1048 1053 0
-1047 -146 1053 0
-1053 1048 1047 0
-1053 1048 146 0
-1049 1054 0
-1048 -146 1054 0
-1054 1049 1048 0
-1054 1049 146 0
-1050 1055 0
-1049 -146 1055 0
-1055 1050 1049 0
-1055 1050 146 0
-1051 1056 0
-1050 -146 1056 0
-1056 1051 1050 0
-1056 1051 146 0
-1051 -146 1057 0
-1057 1051 0
-1057 146 0
-1052 1058 0
-147 1058 0
-1058 1052 147 0
-1053 1059 0
-1052 -147 1059 0
-1059 1053 1052 0
-1059 1053 147 0
-1054 1060 0
-1053 -147 1060 0
-1060 1054 1053 0
-1060 1054 147 0
-1055 1061 0
-1054 -147 1061 0
-1061 1055 1054 0
-1061 1055 147 0
-1056 1062 0
-1055 -147 1062 0
-1062 1056 1055 0
-1062 1056 147 0
-1057 1063 0
-1056 -147 1063 0
-1063 1057 1056 0
-1063 1057 147 0
-1057 -147 1064 0
-1064 1057 0
-1064 147 0
-1058 1065 0
-148 1065 0
-1065 1058 148 0
-1059 1066 0
-1058 -148 1066 0
-1066 1059 1058 0
-1066 1059 148 0
-1060 1067 0
-1059 -148 1067 0
-1067 1060 1059 0
-1067 1060 148 0
-1061 1068 0
-1060 -148 1068 0
-1068 1061 1060 0
-1068 1061 148 0
-1062 1069 0
-1061 -148 1069 0
-1069 1062 1061 0
-1069 1062 148 0
-1063 1070 0
-1062 -148 1070 0
-1070 1063 1062 0
-1070 1063 148 0
-1064 1071 0
-1063 -148 1071 0
-1071 1064 1063 0
-1071 1064 148 0
-1064 -148 1072 0
-1072 1064 0
-1072 148 0
-1065 1073 0
-149 1073 0
-1073 1065 149 0
-1066 1074 0
-1065 -149 1074 0
-1074 1066 1065 0
-1074 1066 149 0
-1067 1075 0
-1066 -149 1075 0
-1075 1067 1066 0
-1075 1067 149 0
-1068 1076 0
-1067 -149 1076 0
-1076 1068 1067 0
-1076 1068 149 0
-1069 1077 0
-1068 -149 1077 0
-1077 1069 1068 0
-1077 1069 149 0
-1070 1078 0
-1069 -149 1078 0
-1078 1070 1069 0
-1078 1070 149 0
-1071 1079 0
-1070 -149 1079 0
-1079 1071 1070 0
-1079 1071 149 0
-1072 1080 0
-1071 -149 1080 0
-1080 1072 1071 0
-1080 1072 149 0
-1073 1081 0
-150 1081 0
-1081 1073 150 0
-1074 1082 0
-1073 -150 1082 0
-1082 1074 1073 0
-1082 1074 150 0
-1075 1083 0
-1074 -150 1083 0
-1083 1075 1074 0
-1083 1075 150 0
-1076 1084 0
-1075 -150 1084 0
-1084 1076 1075 0
-1084 1076 150 0
-1077 1085 0
-1076 -150 1085 0
-1085 1077 1076 0
-1085 1077 150 0
-1078 1086 0
-1077 -150 1086 0
-1086 1078 1077 0
-1086 1078 150 0
-1079 1087 0
-1078 -150 1087 0
-1087 1079 1078 0
-1087 1079 150 0
-1080 1088 0
-1079 -150 1088 0
-1088 1080 1079 0
-1088 1080 150 0
-1081 1089 0
-151 1089 0
-1089 1081 151 0
-1082 1090 0
-1081 -151 1090 0
-1090 1082 1081 0
-1090 1082 151 0
-1083 1091 0
-1082 -151 1091 0
-1091 1083 1082 0
-1091 1083 151 0
-1084 1092 0
-1083 -151 1092 0
-1092 1084 1083 0
-1092 1084 151 0
-1085 1093 0
-1084 -151 1093 0
-1093 1085 1084 0
-1093 1085 151 0
-1086 1094 0
-1085 -151 1094 0
-1094 1086 1085 0
-1094 1086 151 0
-1087 1095 0
-1086 -151 1095 0
-1095 1087 1086 0
-1095 1087 151 0
-1088 1096 0
-1087 -151 1096 0
-1096 1088 1087 0
-1096 1088 151 0
-1089 1097 0
-152 1097 0
-1097 1089 152 0
-1090 1098 0
-1089 -152 1098 0
-1098 1090 1089 0
-1098 1090 152 0
-1091 1099 0
-1090 -152 1099 0
-1099 1091 1090 0
-1099 1091 152 0
-1092 1100 0
-1091 -152 1100 0
-1100 1092 1091 0
-1100 1092 152 0
-1093 1101 0
-1092 -152 1101 0
-1101 1093 1092 0
-1101 1093 152 0
-1094 1102 0
-1093 -152 1102 0
-1102 1094 1093 0
-1102 1094 152 0
-1095 1103 0
-1094 -152 1103 0
-1103 1095 1094 0
-1103 1095 152 0
-1096 1104 0
-1095 -152 1104 0
-1104 1096 1095 0
-1104 1096 152 0
-1097 1105 0
-153 1105 0
-1105 1097 153 0
-1098 1106 0
-1097 -153 1106 0
-1106 1098 1097 0
-1106 1098 153 0
-1099 1107 0
-1098 -153 1107 0
-1107 1099 1098 0
-1107 1099 153 0
-1100 1108 0
-1099 -153 1108 0
-1108 1100 1099 0
-1108 1100 153 0
-1101 1109 0
-1100 -153 1109 0
-1109 1101 1100 0
-1109 1101 153 0
-1102 1110 0
-1101 -153 1110 0
-1110 1102 1101 0
-1110 1102 153 0
-1103 1111 0
-1102 -153 1111 0
-1111 1103 1102 0
-1111 1103 153 0
-1104 1112 0
-1103 -153 1112 0
-1112 1104 1103 0
-1112 1104 153 0
-1105 1113 0
-154 1113 0
-1113 1105 154 0
-1106 1114 0
-1105 -154 1114 0
-1114 1106 1105 0
-1114 1106 154 0
-1107 1115 0
-1106 -154 1115 0
-1115 1107 1106 0
-1115 1107 154 0
-1108 1116 0
-1107 -154 1116 0
-1116 1108 1107 0
-1116 1108 154 0
-1109 1117 0
-1108 -154 1117 0
-1117 1109 1108 0
-1117 1109 154 0
-1110 1118 0
-1109 -154 1118 0
-1118 1110 1109 0
-1118 1110 154 0
-1111 1119 0
-1110 -154 1119 0
-1119 1111 1110 0
-1119 1111 154 0
-1112 1120 0
-1111 -154 1120 0
-1120 1112 1111 0
-1120 1112 154 0
1119 0
-1120 0
-155 1121 0
-1121 155 0
-1121 1122 0
-156 1122 0
-1122 1121 156 0
-1121 -156 1123 0
-1123 1121 0
-1123 156 0
-1122 1124 0
-157 1124 0
-1124 1122 157 0
-1123 1125 0
-1122 -157 1125 0
-1125 1123 1122 0
-1125 1123 157 0
-1123 -157 1126 0
-1126 1123 0
-1126 157 0
-1124 1127 0
-158 1127 0
-1127 1124 158 0
-1125 1128 0
-1124 -158 1128 0
-1128 1125 1124 0
-1128 1125 158 0
-1126 1129 0
-1125 -158 1129 0
-1129 1126 1125 0
-1129 1126 158 0
-1126 -158 1130 0
-1130 1126 0
-1130 158 0
-1127 1131 0
-159 1131 0
-1131 1127 159 0
-1128 1132 0
-1127 -159 1132 0
-1132 1128 1127 0
-1132 1128 159 0
-1129 1133 0
-1128 -159 1133 0
-1133 1129 1128 0
-1133 1129 159 0
-1130 1134 0
-1129 -159 1134 0
-1134 1130 1129 0
-1134 1130 159 0
-1130 -159 1135 0
-1135 1130 0
-1135 159 0
-1131 1136 0
-160 1136 0
-1136 1131 160 0
-1132 1137 0
-1131 -160 1137 0
-1137 1132 1131 0
-1137 1132 160 0
-1133 1138 0
-1132 -160 1138 0
-1138 1133 1132 0
-1138 1133 160 0
-1134 1139 0
-1133 -160 1139 0
-1139 1134 1133 0
-1139 1134 160 0
-1135 1140 0
-1134 -160 1140 0
-1140 1135 1134 0
-1140 1135 160 0
-1135 -160 1141 0
-1141 1135 0
-1141 160 0
-1136 1142 0
-161 1142 0
-1142 1136 161 0
-1137 1143 0
-1136 -161 1143 0
-1143 1137 1136 0
-1143 1137 161 0
-1138 1144 0
-1137 -161 1144 0
-1144 1138 1137 0
-1144 1138 161 0
-1139 1145 0
-1138 -161 1145 0
-1145 1139 1138 0
-1145 1139 161 0
-1140 1146 0
-1139 -161 1146 0
-1146 1140 1139 0
-1146 1140 161 0
-1141 1147 0
-1140 -161 1147 0
-1147 1141 1140 0
-1147 1141 161 0
-1141 -161 1148 0
-1148 1141 0
-1148 161 0
-1142 1149 0
-162 1149 0
-1149 1142 162 0
-1143 1150 0
-1142 -162 1150 0
-1150 1143 1142 0
-1150 1143 162 0
-1144 1151 0
-1143 -162 1151 0
-1151 1144 1143 0
-1151 1144 162 0
-1145 1152 0
-1144 -162 1152 0
-1152 1145 1144 0
-1152 1145 162 0
-1146 1153 0
-1145 -162 1153 0
-1153 1146 1145 0
-1153 1146 162 0
-1147 1154 0
-1146 -162 1154 0
-1154 1147 1146 0
-1154 1147 162 0
-1148 1155 0
-1147 -162 1155 0
-1155 1148 1147 0
-1155 1148 162 0
-1148 -162 1156 0
-1156 1148 0
-1156 162 0
-1149 1157 0
-163 1157 0
-1157 1149 163 0
-1150 1158 0
-1149 -163 1158 0
-1158 1150 1149 0
-1158 1150 163 0
-1151 1159 0
-1150 -163 1159 0
-1159 1151 1150 0
-1159 1151 163 0
-1152 1160 0
-1151 -163 1160 0
-1160 1152 1151 0
-1160 1152 163 0
-1153 1161 0
-1152 -163 1161 0
-1161 1153 1152 0
-1161 1153 163 0
-1154 1162 0
-1153 -163 1162 0
-1162 1154 1153 0
-1162 1154 163 0
-1155 1163 0
-1154 -163 1163 0
-1163 1155 1154 0
-1163 1155 163 0
-1156 1164 0
-1155 -163 1164 0
-1164 1156 1155 0
-1164 1156 163 0
-1157 1165 0
-164 1165 0
-1165 1157 164 0
-1158 1166 0
-1157 -164 1166 0
-1166 1158 1157 0
-1166 1158 164 0
-1159 1167 0
-1158 -164 1167 0
-1167 1159 1158 0
-1167 1159 164 0
-1160 1168 0
-1159 -164 1168 0
-1168 1160 1159 0
-1168 1160 164 0
-1161 1169 0
-1160 -164 1169 0
-1169 1161 1160 0
-1169 1161 164 0
-1162 1170 0
-1161 -164 1170 0
-1170 1162 1161 0
-1170 1162 164 0
-1163 1171 0
-1162 -164 1171 0
-1171 1163 1162 0
-1171 1163 164 0
-1164 1172 0
-1163 -164 1172 0
-1172 1164 1163 0
-1172 1164 164 0
-1165 1173 0
-165 1173 0
-1173 1165 165 0
-1166 1174 0
-1165 -165 1174 0
-1174 1166 1165 0
-1174 1166 165 0
-1167 1175 0
-1166 -165 1175 0
-1175 1167 1166 0
-1175 1167 165 0
-1168 1176 0
-1167 -165 1176 0
-1176 1168 1167 0
-1176 1168 165 0
-1169 1177 0
-1168 -165 1177 0
-1177 1169 1168 0
-1177 1169 165 0
-1170 1178 0
-1169 -165 1178 0
-1178 1170 1169 0
-1178 1170 165 0
-1171 1179 0
-1170 -165 1179 0
-1179 1171 1170 0
-1179 1171 165 0
-1172 1180 0
-1171 -165 1180 0
-1180 1172 1171 0
-1180 1172 165 0
-1173 1181 0
-166 1181 0
-1181 1173 166 0
-1174 1182 0
-1173 -166 1182 0
-1182 1174 1173 0
-1182 1174 166 0
-1175 1183 0
-1174 -166 1183 0
-1183 1175 1174 0
-1183 1175 166 0
-1176 1184 0
-1175 -166 1184 0
-1184 1176 1175 0
-1184 1176 166 0
-1177 1185 0
-1176 -166 1185 0
-1185 1177 1176 0
-1185 1177 166 0
-1178 1186 0
-1177 -166 1186 0
-1186 1178 1177 0
-1186 1178 166 0
-1179 1187 0
-1178 -166 1187 0
-1187 1179 1178 0
-1187 1179 166 0
-1180 1188 0
-1179 -166 1188 0
-1188 1180 1179 0
-1188 1180 166 0
-1181 1189 0
-167 1189 0
-1189 1181 167 0
-1182 1190 0
-1181 -167 1190 0
-1190 1182 1181 0
-1190 1182 167 0
-1183 1191 0
-1182 -167 1191 0
-1191 1183 1182 0
-1191 1183 167 0
-1184 1192 0
-1183 -167 1192 0
-1192 1184 1183 0
-1192 1184 167 0
-1185 1193 0
-1184 -167 1193 0
-1193 1185 1184 0
-1193 1185 167 0
-1186 1194 0
-1185 -167 1194 0
-1194 1186 1185 0
-1194 1186 167 0
-1187 1195 0
-1186 -167 1195 0
-1195 1187 1186 0
-1195 1187 167 0
-1188 1196 0
-1187 -167 1196 0
-1196 1188 1187 0
-1196 1188 167 0
-1189 1197 0
-168 1197 0
-1197 1189 168 0
-1190 1198 0
-1189 -168 1198 0
-1198 1190 1189 0
-1198 1190 168 0
-1191 1199 0
-1190 -168 1199 0
-1199 1191 1190 0
-1199 1191 168 0
-1192 1200 0
-1191 -168 1200 0
-1200 1192 1191 0
-1200 1192 168 0
-1193 1201 0
-1192 -168 1201 0
-1201 1193 1192 0
-1201 1193 168 0
-1194 1202 0
-1193 -168 1202 0
-1202 1194 1193 0
-1202 1194 168 0
-1195 1203 0
-1194 -168 1203 0
-1203 1195 1194 0
-1203 1195 168 0
-1196 1204 0
-1195 -168 1204 0
-1204 1196 1195 0
-1204 1196 168 0
1203 0
-1204 0
-169 1205 0
-1205 169 0
-1205 1206 0
-170 1206 0
-1206 1205 170 0
-1205 -170 1207 0
-1207 1205 0
-1207 170 0
-1206 1208 0
-171 1208 0
-1208 1206 171 0
-1207 1209 0
-1206 -171 1209 0
-1209 1207 1206 0
-1209 1207 171 0
-1207 -171 1210 0
-1210 1207 0
-1210 171 0
-1208 1211 0
-172 1211 0
-1211 1208 172 0
-1209 1212 0
-1208 -172 1212 0
-1212 1209 1208 0
-1212 1209 172 0
-1210 1213 0
-1209 -172 1213 0
-1213 1210 1209 0
-1213 1210 172 0
-1210 -172 1214 0
-1214 1210 0
-1214 172 0
-1211 1215 0
-173 1215 0
-1215 1211 173 0
-1212 1216 0
-1211 -173 1216 0
-1216 1212 1211 0
-1216 1212 173 0
-1213 1217 0
-1212 -173 1217 0
-1217 1213 1212 0
-1217 1213 173 0
-1214 1218 0
-1213 -173 1218 0
-1218 1214 1213 0
-1218 1214 173 0
-1214 -173 1219 0
-1219 1214 0
-1219 173 0
-1215 1220 0
-174 1220 0
-1220 1215 174 0
-1216 1221 0
-1215 -174 1221 0
-1221 1216 1215 0
-1221 1216 174 0
-1217 1222 0
-1216 -174 1222 0
-1222 1217 1216 0
-1222 1217 174 0
-1218 1223 0
-1217 -174 1223 0
-1223 1218 1217 0
-1223 1218 174 0
-1219 1224 0
-1218 -174 1224 0
-1224 1219 1218 0
-1224 1219 174 0
-1219 -174 1225 0
-1225 1219 0
-1225 174 0
-1220 1226 0
-175 1226 0
-1226 1220 175 0
-1221 1227 0
-1220 -175 1227 0
-1227 1221 1220 0
-1227 1221 175 0
-1222 1228 0
-1221 -175 1228 0
-1228 1222 1221 0
-1228 1222 175 0
-1223 1229 0
-1222 -175 1229 0
-1229 1223 1222 0
-1229 1223 175 0
-1224 1230 0
-1223 -175 1230 0
-1230 1224 1223 0
-1230 1224 175 0
-1225 1231 0
-1224 -175 1231 0
-1231 1225 1224 0
-1231 1225 175 0
-1225 -175 1232 0
-1232 1225 0
-1232 175 0
-1226 1233 0
-176 1233 0
-1233 1226 176 0
-1227 1234 0
-1226 -176 1234 0
-1234 1227 1226 0
-1234 1227 176 0
-1228 1235 0
-1227 -176 1235 0
-1235 1228 1227 0
-1235 1228 176 0
-1229 1236 0
-1228 -176 1236 0
-1236 1229 1228 0
-1236 1229 176 0
-1230 1237 0
-1229 -176 1237 0
-1237 1230 1229 0
-1237 1230 176 0
-1231 1238 0
-1230 -176 1238 0
-1238 1231 1230 0
-1238 1231 176 0
-1232 1239 0
-1231 -176 1239 0
-1239 1232 1231 0
-1239 1232 176 0
-1232 -176 1240 0
-1240 1232 0
-1240 176 0
-1233 1241 0
-177 1241 0
-1241 1233 177 0
-1234 1242 0
-1233 -177 1242 0
-1242 1234 1233 0
-1242 1234 177 0
-1235 1243 0
-1234 -177 1243 0
-1243 1235 1234 0
-1243 1235 177 0
-1236 1244 0
-1235 -177 1244 0
-1244 1236 1235 0
-1244 1236 177 0
-1237 1245 0
-1236 -177 1245 0
-1245 1237 1236 0
-1245 1237 177 0
-1238 1246 0
-1237 -177 1246 0
-1246 1238 1237 0
-1246 1238 177 0
-1239 1247 0
-1238 -177 1247 0
-1247 1239 1238 0
-1247 1239 177 0
-1240 1248 0
-1239 -177 1248 0
-1248 1240 1239 0
-1248 1240 177 0
-1241 1249 0
-178 1249 0
-1249 1241 178 0
-1242 1250 0
-1241 -178 1250 0
-1250 1242 1241 0
-1250 1242 178 0
-1243 1251 0
-1242 -178 1251 0
-1251 1243 1242 0
-1251 1243 178 0
-1244 1252 0
-1243 -178 1252 0
-1252 1244 1243 0
-1252 1244 178 0
-1245 1253 0
-1244 -178 1253 0
-1253 1245 1244 0
-1253 1245 178 0
-1246 1254 0
-1245 -178 1254 0
-1254 1246 1245 0
-1254 1246 178 0
-1247 1255 0
-1246 -178 1255 0
-1255 1247 1246 0
-1255 1247 178 0
-1248 1256 0
-1247 -178 1256 0
-1256 1248 1247 0
-1256 1248 178 0
-1249 1257 0
-179 1257 0
-1257 1249 179 0
-1250 1258 0
-1249 -179 1258 0
-1258 1250 1249 0
-1258 1250 179 0
-1251 1259 0
-1250 -179 1259 0
-1259 1251 1250 0
-1259 1251 179 0
-1252 1260 0
-1251 -179 1260 0
-1260 1252 1251 0
-1260 1252 179 0
-1253 1261 0
-1252 -179 1261 0
-1261 1253 1252 0
-1261 1253 179 0
-1254 1262 0
-1253 -179 1262 0
-1262 1254 1253 0
-1262 1254 179 0
-1255 1263 0
-1254 -179 1263 0
-1263 1255 1254 0
-1263 1255 179 0
-1256 1264 0
-1255 -179 1264 0
-1264 1256 1255 0
-1264 1256 179 0
-1257 1265 0
-180 1265 0
-1265 1257 180 0
-1258 1266 0
-1257 -180 1266 0
-1266 1258 1257 0
-1266 1258 180 0
-1259 1267 0
-1258 -180 1267 0
-1267 1259 1258 0
-1267 1259 180 0
-1260 1268 0
-1259 -180 1268 0
-1268 1260 1259 0
-1268 1260 180 0
-1261 1269 0
-1260 -180 1269 0
-1269 1261 1260 0
-1269 1261 180 0
-1262 1270 0
-1261 -180 1270 0
-1270 1262 1261 0
-1270 1262 180 0
-1263 1271 0
-1262 -180 1271 0
-1271 1263 1262 0
-1271 1263 180 0
-1264 1272 0
-1263 -180 1272 0
-1272 1264 1263 0
-1272 1264 180 0
-1265 1273 0
-181 1273 0
-1273 1265 181 0
-1266 1274 0
-1265 -181 1274 0
-1274 1266 1265 0
-1274 1266 181 0
-1267 1275 0
-1266 -181 1275 0
-1275 1267 1266 0
-1275 1267 181 0
-1268 1276 0
-1267 -181 1276 0
-1276 1268 1267 0
-1276 1268 181 0
-1269 1277 0
-1268 -181 1277 0
-1277 1269 1268 0
-1277 1269 181 0
-1270 1278 0
-1269 -181 1278 0
-1278 1270 1269 0
-1278 1270 181 0
-1271 1279 0
-1270 -181 1279 0
-1279 1271 1270 0
-1279 1271 181 0
-1272 1280 0
-1271 -181 1280 0
-1280 1272 1271 0
-1280 1272 181 0
-1273 1281 0
-182 1281 0
-1281 1273 182 0
-1274 1282 0
-1273 -182 1282 0
-1282 1274 1273 0
-1282 1274 182 0
-1275 1283 0
-1274 -182 1283 0
-1283 1275 1274 0
-1283 1275 182 0
-1276 1284 0
-1275 -182 1284 0
-1284 1276 1275 0
-1284 1276 182 0
-1277 1285 0
-1276 -182 1285 0
-1285 1277 1276 0
-1285 1277 182 0
-1278 1286 0
-1277 -182 1286 0
-1286 1278 1277 0
-1286 1278 182 0
-1279 1287 0
-1278 -182 1287 0
-1287 1279 1278 0
-1287 1279 182 0
-1280 1288 0
-1279 -182 1288 0
-1288 1280 1279 0
-1288 1280 182 0
1287 0
-1288 0
-183 1289 0
-1289 183 0
-1289 1290 0
-184 1290 0
-1290 1289 184 0
-1289 -184 1291 0
-1291 1289 0
-1291 184 0
-1290 1292 0
-185 1292 0
-1292 1290 185 0
-1291 1293 0
-1290 -185 1293 0
-1293 1291 1290 0
-1293 1291 185 0
-1291 -185 1294 0
-1294 1291 0
-1294 185 0
-1292 1295 0
-186 1295 0
-1295 1292 186 0
-1293 1296 0
-1292 -186 1296 0
-1296 1293 1292 0
-1296 1293 186 0
-1294 1297 0
-1293 -186 1297 0
-1297 1294 1293 0
-1297 1294 186 0
-1294 -186 1298 0
-1298 1294 0
-1298 186 0
-1295 1299 0
-187 1299 0
-1299 1295 187 0
-1296 1300 0
-1295 -187 1300 0
-1300 1296 1295 0
-1300 1296 187 0
-1297 1301 0
-1296 -187 1301 0
-1301 1297 1296 0
-1301 1297 187 0
-1298 1302 0
-1297 -187 1302 0
-1302 1298 1297 0
-1302 1298 187 0
-1298 -187 1303 0
-1303 1298 0
-1303 187 0
-1299 1304 0
-188 1304 0
-1304 1299 188 0
-1300 1305 0
-1299 -188 1305 0
-1305 1300 1299 0
-1305 1300 188 0
-1301 1306 0
-1300 -188 1306 0
-1306 1301 1300 0
-1306 1301 188 0
-1302 1307 0
-1301 -188 1307 0
-1307 1302 1301 0
-1307 1302 188 0
-1303 1308 0
-1302 -188 1308 0
-1308 1303 1302 0
-1308 1303 188 0
-1303 -188 1309 0
-1309 1303 0
-1309 188 0
-1304 1310 0
-189 1310 0
-1310 1304 189 0
-1305 1311 0
-1304 -189 1311 0
-1311 1305 1304 0
-1311 1305 189 0
-1306 1312 0
-1305 -189 1312 0
-1312 1306 1305 0
-1312 1306 189 0
-1307 1313 0
-1306 -189 1313 0
-1313 1307 1306 0
-1313 1307 189 0
-1308 1314 0
-1307 -189 1314 0
-1314 1308 1307 0
-1314 1308 189 0
-1309 1315 0
-1308 -189 1315 0
-1315 1309 1308 0
-1315 1309 189 0
-1309 -189 1316 0
-1316 1309 0
-1316 189 0
-1310 1317 0
-190 1317 0
-1317 1310 190 0
-1311 1318 0
-1310 -190 1318 0
-1318 1311 1310 0
-1318 1311 190 0
-1312 1319 0
-1311 -190 1319 0
-1319 1312 1311 0
-1319 1312 190 0
-1313 1320 0
-1312 -190 1320 0
-1320 1313 1312 0
-1320 1313 190 0
-1314 1321 0
-1313 -190 1321 0
-1321 1314 1313 0
-1321 1314 190 0
-1315 1322 0
-1314 -190 1322 0
-1322 1315 1314 0
-1322 1315 190 0
-1316 1323 0
-1315 -190 1323 0
-1323 1316 1315 0
-1323 1316 190 0
-1316 -190 1324 0
-1324 1316 0
-1324 190 0
-1317 1325 0
-191 1325 0
-1325 1317 191 0
-1318 1326 0
-1317 -191 1326 0
-1326 1318 1317 0
-1326 1318 191 0
-1319 1327 0
-1318 -191 1327 0
-1327 1319 1318 0
-1327 1319 191 0
-1320 1328 0
-1319 -191 1328 0
-1328 1320 1319 0
-1328 1320 191 0
-1321 1329 0
-1320 -191 1329 0
-1329 1321 1320 0
-1329 1321 191 0
-1322 1330 0
-1321 -191 1330 0
-1330 1322 1321 0
-1330 1322 191 0
-1323 1331 0
-1322 -191 1331 0
-1331 1323 1322 0
-1331 1323 191 0
-1324 1332 0
-1323 -191 1332 0
-1332 1324 1323 0
-1332 1324 191 0
-1325 1333 0
-192 1333 0
-1333 1325 192 0
-1326 1334 0
-1325 -192 1334 0
-1334 1326 1325 0
-1334 1326 192 0
-1327 1335 0
-1326 -192 1335 0
-1335 1327 1326 0
-1335 1327 192 0
-1328 1336 0
-1327 -192 1336 0
-1336 1328 1327 0
-1336 1328 192 0
-1329 1337 0
-1328 -192 1337 0
-1337 1329 1328 0
-1337 1329 192 0
-1330 1338 0
-1329 -192 1338 0
-1338 1330 1329 0
-1338 1330 192 0
-1331 1339 0
-1330 -192 1339 0
-1339 1331 1330 0
-1339 1331 192 0
-1332 1340 0
-1331 -192 1340 0
-1340 1332 1331 0
-1340 1332 192 0
-1333 1341 0
-193 1341 0
-1341 1333 193 0
-1334 1342 0
-1333 -193 1342 0
-1342 1334 1333 0
-1342 1334 193 0
-1335 1343 0
-1334 -193 1343 0
-1343 1335 1334 0
-1343 1335 193 0
-1336 1344 0
-1335 -193 1344 0
-1344 1336 1335 0
-1344 1336 193 0
-1337 1345 0
-1336 -193 1345 0
-1345 1337 1336 0
-1345 1337 193 0
-1338 1346 0
-1337 -193 1346 0
-1346 1338 1337 0
-1346 1338 193 0
-1339 1347 0
-1338 -193 1347 0
-1347 1339 1338 0
-1347 1339 193 0
-1340 1348 0
-1339 -193 1348 0
-1348 1340 1339 0
-1348 1340 193 0
-1341 1349 0
-194 1349 0
-1349 1341 194 0
-1342 1350 0
-1341 -194 1350 0
-1350 1342 1341 0
-1350 1342 194 0
-1343 1351 0
-1342 -194 1351 0
-1351 1343 1342 0
-1351 1343 194 0
-1344 1352 0
-1343 -194 1352 0
-1352 1344 1343 0
-1352 1344 194 0
-1345 1353 0
-1344 -194 1353 0
-1353 1345 1344 0
-1353 1345 194 0
-1346 1354 0
-1345 -194 1354 0
-1354 1346 1345 0
-1354 1346 194 0
-1347 1355 0
-1346 -194 1355 0
-1355 1347 1346 0
-1355 1347 194 0
-1348 1356 0
-1347 -194 1356 0
-1356 1348 1347 0
-1356 1348 194 0
-1349 1357 0
-195 1357 0
-1357 1349 195 0
-1350 1358 0
-1349 -195 1358 0
-1358 1350 1349 0
-1358 1350 195 0
-1351 1359 0
-1350 -195 1359 0
-1359 1351 1350 0
-1359 1351 195 0
-1352 1360 0
-1351 -195 1360 0
-1360 1352 1351 0
-1360 1352 195 0
-1353 1361 0
-1352 -195 1361 0
-1361 1353 1352 0
-1361 1353 195 0
-1354 1362 0
-1353 -195 1362 0
-1362 1354 1353 0
-1362 1354 195 0
-1355 1363 0
-1354 -195 1363 0
-1363 1355 1354 0
-1363 1355 195 0
-1356 1364 0
-1355 -195 1364 0
-1364 1356 1355 0
-1364 1356 195 0
-1357 1365 0
-196 1365 0
-1365 1357 196 0
-1358 1366 0
-1357 -196 1366 0
-1366 1358 1357 0
-1366 1358 196 0
-1359 1367 0
-1358 -196 1367 0
-1367 1359 1358 0
-1367 1359 196 0
-1360 1368 0
-1359 -196 1368 0
-1368 1360 1359 0
-1368 1360 196 0
-1361 1369 0
-1360 -196 1369 0
-1369 1361 1360 0
-1369 1361 196 0
-1362 1370 0
-1361 -196 1370 0
-1370 1362 1361 0
-1370 1362 196 0
-1363 1371 0
-1362 -196 1371 0
-1371 1363 1362 0
-1371 1363 196 0
-1364 1372 0
-1363 -196 1372 0
-1372 1364 1363 0
-1372 1364 196 0
1371 0
-1372 0
-1 1373 0
-1373 1 0
-1373 1374 0
-15 1374 0
-1374 1373 15 0
-1373 -15 1375 0
-1375 1373 0
-1375 15 0
-1374 1376 0
-29 1376 0
-1376 1374 29 0
-1375 1377 0
-1374 -29 1377 0
-1377 1375 1374 0
-1377 1375 29 0
-1375 -29 1378 0
-1378 1375 0
-1378 29 0
-1376 1379 0
-43 1379 0
-1379 1376 43 0
-1377 1380 0
-1376 -43 1380 0
-1380 1377 1376 0
-1380 1377 43 0
-1378 1381 0
-1377 -43 1381 0
-1381 1378 1377 0
-1381 1378 43 0
-1378 -43 1382 0
-1382 1378 0
-1382 43 0
-1379 1383 0
-57 1383 0
-1383 1379 57 0
-1380 1384 0
-1379 -57 1384 0
-1384 1380 1379 0
-1384 1380 57 0
-1381 1385 0
-1380 -57 1385 0
-1385 1381 1380 0
-1385 1381 57 0
-1382 1386 0
-1381 -57 1386 0
-1386 1382 1381 0
-1386 1382 57 0
-1382 -57 1387 0
-1387 1382 0
-1387 57 0
-1383 1388 0
-71 1388 0
-1388 1383 71 0
-1384 1389 0
-1383 -71 1389 0
-1389 1384 1383 0
-1389 1384 71 0
-1385 1390 0
-1384 -71 1390 0
-1390 1385 1384 0
-1390 1385 71 0
-1386 1391 0
-1385 -71 1391 0
-1391 1386 1385 0
-1391 1386 71 0
-1387 1392 0
-1386 -71 1392 0
-1392 1387 1386 0
-1392 1387 71 0
-1387 -71 1393 0
-1393 1387 0
-1393 71 0
-1388 1394 0
-85 1394 0
-1394 1388 85 0
-1389 1395 0
-1388 -85 1395 0
-1395 1389 1388 0
-1395 1389 85 0
-1390 1396 0
-1389 -85 1396 0
-1396 1390 1389 0
-1396 1390 85 0
-1391 1397 0
-1390 -85 1397 0
-1397 1391 1390 0
-1397 1391 85 0
-1392 1398 0
-1391 -85 1398 0
-1398 1392 1391 0
-1398 1392 85 0
-1393 1399 0
-1392 -85 1399 0
-1399 1393 1392 0
-1399 1393 85 0
-1393 -85 1400 0
-1400 1393 0
-1400 85 0
-1394 1401 0
-99 1401 0
-1401 1394 99 0
-1395 1402 0
-1394 -99 1402 0
-1402 1395 1394 0
-1402 1395 99 0
-1396 1403 0
-1395 -99 1403 0
-1403 1396 1395 0
-1403 1396 99 0
-1397 1404 0
-1396 -99 1404 0
-1404 1397 1396 0
-1404 1397 99 0
-1398 1405 0
-1397 -99 1405 0
-1405 1398 1397 0
-1405 1398 99 0
-1399 1406 0
-1398 -99 1406 0
-1406 1399 1398 0
-1406 1399 99 0
-1400 1407 0
-1399 -99 1407 0
-1407 1400 1399 0
-1407 1400 99 0
-1400 -99 1408 0
-1408 1400 0
-1408 99 0
-1401 1409 0
-113 1409 0
-1409 1401 113 0
-1402 1410 0
-1401 -113 1410 0
-1410 1402 1401 0
-1410 1402 113 0
-1403 1411 0
-1402 -113 1411 0
-1411 1403 1402 0
-1411 1403 113 0
-1404 1412 0
-1403 -113 1412 0
-1412 1404 1403 0
-1412 1404 113 0
-1405 1413 0
-1404 -113 1413 0
-1413 1405 1404 0
-1413 1405 113 0
-1406 1414 0
-1405 -113 1414 0
-1414 1406 1405 0
-1414 1406 113 0
-1407 1415 0
-1406 -113 1415 0
-1415 1407 1406 0
-1415 1407 113 0
-1408 1416 0
-1407 -113 1416 0
-1416 1408 1407 0
-1416 1408 113 0
-1409 1417 0
-127 1417 0
-1417 1409 127 0
-1410 1418 0
-1409 -127 1418 0
-1418 1410 1409 0
-1418 1410 127 0
-1411 1419 0
-1410 -127 1419 0
-1419 1411 1410 0
-1419 1411 127 0
-1412 1420 0
-1411 -127 1420 0
-1420 1412 1411 0
-1420 1412 127 0
-1413 1421 0
-1412 -127 1421 0
-1421 1413 1412 0
-1421 1413 127 0
-1414 1422 0
-1413 -127 1422 0
-1422 1414 1413 0
-1422 1414 127 0
-1415 1423 0
-1414 -127 1423 0
-1423 1415 1414 0
-1423 1415 127 0
-1416 1424 0
-1415 -127 1424 0
-1424 1416 1415 0
-1424 1416 127 0
-1417 1425 0
-141 1425 0
-1425 1417 141 0
-1418 1426 0
-1417 -141 1426 0
-1426 1418 1417 0
-1426 1418 141 0
-1419 1427 0
-1418 -141 1427 0
-1427 1419 1418 0
-1427 1419 141 0
-1420 1428 0
-1419 -141 1428 0
-1428 1420 1419 0
-1428 1420 141 0
-1421 1429 0
-1420 -141 1429 0
-1429 1421 1420 0
-1429 1421 141 0
-1422 1430 0
-1421 -141 1430 0
-1430 1422 1421 0
-1430 1422 141 0
-1423 1431 0
-1422 -141 1431 0
-1431 1423 1422 0
-1431 1423 141 0
-1424 1432 0
-1423 -141 1432 0
-1432 1424 1423 0
-1432 1424 141 0
-1425 1433 0
-155 1433 0
-1433 1425 155 0
-1426 1434 0
-1425 -155 1434 0
-1434 1426 1425 0
-1434 1426 155 0
-1427 1435 0
-1426 -155 1435 0
-1435 1427 1426 0
-1435 1427 155 0
-1428 1436 0
-1427 -155 1436 0
-1436 1428 1427 0
-1436 1428 155 0
-1429 1437 0
-1428 -155 1437 0
-1437 1429 1428 0
-1437 1429 155 0
-1430 1438 0
-1429 -155 1438 0
-1438 1430 1429 0
-1438 1430 155 0
-1431 1439 0
-1430 -155 1439 0
-1439 1431 1430 0
-1439 1431 155 0
-1432 1440 0
-1431 -155 1440 0
-1440 1432 1431 0
-1440 1432 155 0
-1433 1441 0
-169 1441 0
-1441 1433 169 0
-1434 1442 0
-1433 -169 1442 0
-1442 1434 1433 0
-1442 1434 169 0
-1435 1443 0
-1434 -169 1443 0
-1443 1435 1434 0
-1443 1435 169 0
-1436 1444 0
-1435 -169 1444 0
-1444 1436 1435 0
-1444 1436 169 0
-1437 1445 0
-1436 -169 1445 0
-1445 1437 1436 0
-1445 1437 169 0
-1438 1446 0
-1437 -169 1446 0
-1446 1438 1437 0
-1446 1438 169 0
-1439 1447 0
-1438 -169 1447 0
-1447 1439 1438 0
-1447 1439 169 0
-1440 1448 0
-1439 -169 1448 0
-1448 1440 1439 0
-1448 1440 169 0
-1441 1449 0
-183 1449 0
-1449 1441 183 0
-1442 1450 0
-1441 -183 1450 0
-1450 1442 1441 0
-1450 1442 183 0
-1443 1451 0
-1442 -183 1451 0
-1451 1443 1442 0
-1451 1443 183 0
-1444 1452 0
-1443 -183 1452 0
-1452 1444 1443 0
-1452 1444 183 0
-1445 1453 0
-1444 -183 1453 0
-1453 1445 1444 0
-1453 1445 183 0
-1446 1454 0
-1445 -183 1454 0
-1454 1446 1445 0
-1454 1446 183 0
-1447 1455 0
-1446 -183 1455 0
-1455 1447 1446 0
-1455 1447 183 0
-1448 1456 0
-1447 -183 1456 0
-1456 1448 1447 0
-1456 1448 183 0
1455 0
-1456 0
-2 1457 0
-1457 2 0
-1457 1458 0
-16 1458 0
-1458 1457 16 0
-1457 -16 1459 0
-1459 1457 0
-1459 16 0
-1458 1460 0
-30 1460 0
-1460 1458 30 0
-1459 1461 0
-1458 -30 1461 0
-1461 1459 1458 0
-1461 1459 30 0
-1459 -30 1462 0
-1462 1459 0
-1462 30 0
-1460 1463 0
-44 1463 0
-1463 1460 44 0
-1461 1464 0
-1460 -44 1464 0
-1464 1461 1460 0
-1464 1461 44 0
-1462 1465 0
-1461 -44 1465 0
-1465 1462 1461 0
-1465 1462 44 0
-1462 -44 1466 0
-1466 1462 0
-1466 44 0
-1463 1467 0
-58 1467 0
-1467 1463 58 0
-1464 1468 0
-1463 -58 1468 0
-1468 1464 1463 0
-1468 1464 58 0
-1465 1469 0
-1464 -58 1469 0
-1469 1465 1464 0
-1469 1465 58 0
-1466 1470 0
-1465 -58 1470 0
-1470 1466 1465 0
-1470 1466 58 0
-1466 -58 1471 0
-1471 1466 0
-1471 58 0
-1467 1472 0
-72 1472 0
-1472 1467 72 0
-1468 1473 0
-1467 -72 1473 0
-1473 1468 1467 0
-1473 1468 72 0
-1469 1474 0
-1468 -72 1474 0
-1474 1469 1468 0
-1474 1469 72 0
-1470 1475 0
-1469 -72 1475 0
-1475 1470 1469 0
-1475 1470 72 0
-1471 1476 0
-1470 -72 1476 0
-1476 1471 1470 0
-1476 1471 72 0
-1471 -72 1477 0
-1477 1471 0
-1477 72 0
-1472 1478 0
-86 1478 0
-1478 1472 86 0
-1473 1479 0
-1472 -86 1479 0
-1479 1473 1472 0
-1479 1473 86 0
-1474 1480 0
-1473 -86 1480 0
-1480 1474 1473 0
-1480 1474 86 0
-1475 1481 0
-1474 -86 1481 0
-1481 1475 1474 0
-1481 1475 86 0
-1476 1482 0
-1475 -86 1482 0
-1482 1476 1475 0
-1482 1476 86 0
-1477 1483 0
-1476 -86 1483 0
-1483 1477 1476 0
-1483 1477 86 0
-1477 -86 1484 0
-1484 1477 0
-1484 86 0
-1478 1485 0
-100 1485 0
-1485 1478 100 0
-1479 1486 0
-1478 -100 1486 0
-1486 1479 1478 0
-1486 1479 100 0
-1480 1487 0
-1479 -100 1487 0
-1487 1480 1479 0
-1487 1480 100 0
-1481 1488 0
-1480 -100 1488 0
-1488 1481 1480 0
-1488 1481 100 0
-1482 1489 0
-1481 -100 1489 0
-1489 1482 1481 0
-1489 1482 100 0
-1483 1490 0
-1482 -100 1490 0
-1490 1483 1482 0
-1490 1483 100 0
-1484 1491 0
-1483 -100 1491 0
-1491 1484 1483 0
-1491 1484 100 0
-1484 -100 1492 0
-1492 1484 0
-1492 100 0
-1485 1493 0
-114 1493 0
-1493 1485 114 0
-1486 1494 0
-1485 -114 1494 0
-1494 1486 1485 0
-1494 1486 114 0
-1487 1495 0
-1486 -114 1495 0
-1495 1487 1486 0
-1495 1487 114 0
-1488 1496 0
-1487 -114 1496 0
-1496 1488 1487 0
-1496 1488 114 0
-1489 1497 0
-1488 -114 1497 0
-1497 1489 1488 0
-1497 1489 114 0
-1490 1498 0
-1489 -114 1498 0
-1498 1490 1489 0
-1498 1490 114 0
-1491 1499 0
-1490 -114 1499 0
-1499 1491 1490 0
-1499 1491 114 0
-1492 1500 0
-1491 -114 1500 0
-1500 1492 1491 0
-1500 1492 114 0
-1493 1501 0
-128 1501 0
-1501 1493 128 0
-1494 1502 0
-1493 -128 1502 0
-1502 1494 1493 0
-1502 1494 128 0
-1495 1503 0
-1494 -128 1503 0
-1503 1495 1494 0
-1503 1495 128 0
-1496 1504 0
-1495 -128 1504 0
-1504 1496 1495 0
-1504 1496 128 0
-1497 1505 0
-1496 -128 1505 0
-1505 1497 1496 0
-1505 1497 128 0
-1498 1506 0
-1497 -128 1506 0
-1506 1498 1497 0
-1506 1498 128 0
-1499 1507 0
-1498 -128 1507 0
-1507 1499 1498 0
-1507 1499 128 0
-1500 1508 0
-1499 -128 1508 0
-1508 1500 1499 0
-1508 1500 128 0
-1501 1509 0
-142 1509 0
-1509 1501 142 0
-1502 1510 0
-1501 -142 1510 0
-1510 1502 1501 0
-1510 1502 142 0
-1503 1511 0
-1502 -142 1511 0
-1511 1503 1502 0
-1511 1503 142 0
-1504 1512 0
-1503 -142 1512 0
-1512 1504 1503 0
-1512 1504 142 0
-1505 1513 0
-1504 -142 1513 0
-1513 1505 1504 0
-1513 1505 142 0
-1506 1514 0
-1505 -142 1514 0
-1514 1506 1505 0
-1514 1506 142 0
-1507 1515 0
-1506 -142 1515 0
-1515 1507 1506 0
-1515 1507 142 0
-1508 1516 0
-1507 -142 1516 0
-1516 1508 1507 0
-1516 1508 142 0
-1509 1517 0
-156 1517 0
-1517 1509 156 0
-1510 1518 0
-1509 -156 1518 0
-1518 1510 1509 0
-1518 1510 156 0
-1511 1519 0
-1510 -156 1519 0
-1519 1511 1510 0
-1519 1511 156 0
-1512 1520 0
-1511 -156 1520 0
-1520 1512 1511 0
-1520 1512 156 0
-1513 1521 0
-1512 -156 1521 0
-1521 1513 1512 0
-1521 1513 156 0
-1514 1522 0
-1513 -156 1522 0
-1522 1514 1513 0
-1522 1514 156 0
-1515 1523 0
-1514 -156 1523 0
-1523 1515 1514 0
-1523 1515 156 0
-1516 1524 0
-1515 -156 1524 0
-1524 1516 1515 0
-1524 1516 156 0
-1517 1525 0
-170 1525 0
-1525 1517 170 0
-1518 1526 0
-1517 -170 1526 0
-1526 1518 1517 0
-1526 1518 170 0
-1519 1527 0
-1518 -170 1527 0
-1527 1519 1518 0
-1527 1519 170 0
-1520 1528 0
-1519 -170 1528 0
-1528 1520 1519 0
-1528 1520 170 0
-1521 1529 0
-1520 -170 1529 0
-1529 1521 1520 0
-1529 1521 170 0
-1522 1530 0
-1521 -170 1530 0
-1530 1522 1521 0
-1530 1522 170 0
-1523 1531 0
-1522 -170 1531 0
-1531 1523 1522 0
-1531 1523 170 0
-1524 1532 0
-1523 -170 1532 0
-1532 1524 1523 0
-1532 1524 170 0
-1525 1533 0
-184 1533 0
-1533 1525 184 0
-1526 1534 0
-1525 -184 1534 0
-1534 1526 1525 0
-1534 1526 184 0
-1527 1535 0
-1526 -184 1535 0
-1535 1527 1526 0
-1535 1527 184 0
-1528 1536 0
-1527 -184 1536 0
-1536 1528 1527 0
-1536 1528 184 0
-1529 1537 0
-1528 -184 1537 0
-1537 1529 1528 0
-1537 1529 184 0
-1530 1538 0
-1529 -184 1538 0
-1538 1530 1529 0
-1538 1530 184 0
-1531 1539 0
-1530 -184 1539 0
-1539 1531 1530 0
-1539 1531 184 0
-1532 1540 0
-1531 -184 1540 0
-1540 1532 1531 0
-1540 1532 184 0
1539 0
-1540 0
-3 1541 0
-1541 3 0
-1541 1542 0
-17 1542 0
-1542 1541 17 0
-1541 -17 1543 0
-1543 1541 0
-1543 17 0
-1542 1544 0
-31 1544 0
-1544 1542 31 0
-1543 1545 0
-1542 -31 1545 0
-1545 1543 1542 0
-1545 1543 31 0
-1543 -31 1546 0
-1546 1543 0
-1546 31 0
-1544 1547 0
-45 1547 0
-1547 1544 45 0
-1545 1548 0
-1544 -45 1548 0
-1548 1545 1544 0
-1548 1545 45 0
-1546 1549 0
-1545 -45 1549 0
-1549 1546 1545 0
-1549 1546 45 0
-1546 -45 1550 0
-1550 1546 0
-1550 45 0
-1547 1551 0
-59 1551 0
-1551 1547 59 0
-1548 1552 0
-1547 -59 1552 0
-1552 1548 1547 0
-1552 1548 59 0
-1549 1553 0
-1548 -59 1553 0
-1553 1549 1548 0
-1553 1549 59 0
-1550 1554 0
-1549 -59 1554 0
-1554 1550 1549 0
-1554 1550 59 0
-1550 -59 1555 0
-1555 1550 0
-1555 59 0
-1551 1556 0
-73 1556 0
-1556 1551 73 0
-1552 1557 0
-1551 -73 1557 0
-1557 1552 1551 0
-1557 1552 73 0
-1553 1558 0
-1552 -73 1558 0
-1558 1553 1552 0
-1558 1553 73 0
-1554 1559 0
-1553 -73 1559 0
-1559 1554 1553 0
-1559 1554 73 0
-1555 1560 0
-1554 -73 1560 0
-1560 1555 1554 0
-1560 1555 73 0
-1555 -73 1561 0
-1561 1555 0
-1561 73 0
-1556 1562 0
-87 1562 0
-1562 1556 87 0
-1557 1563 0
-1556 -87 1563 0
-1563 1557 1556 0
-1563 1557 87 0
-1558 1564 0
-1557 -87 1564 0
-1564 1558 1557 0
-1564 1558 87 0
-1559 1565 0
-1558 -87 1565 0
-1565 1559 1558 0
-1565 1559 87 0
-1560 1566 0
-1559 -87 1566 0
-1566 1560 1559 0
-1566 1560 87 0
-1561 1567 0
-1560 -87 1567 0
-1567 1561 1560 0
-1567 1561 87 0
-1561 -87 1568 0
-1568 1561 0
-1568 87 0
-1562 1569 0
-101 1569 0
-1569 1562 101 0
-1563 1570 0
-1562 -101 1570 0
-1570 1563 1562 0
-1570 1563 101 0
-1564 1571 0
-1563 -101 1571 0
-1571 1564 1563 0
-1571 1564 101 0
-1565 1572 0
-1564 -101 1572 0
-1572 1565 1564 0
-1572 1565 101 0
-1566 1573 0
-1565 -101 1573 0
-1573 1566 1565 0
-1573 1566 101 0
-1567 1574 0
-1566 -101 1574 0
-1574 1567 1566 0
-1574 1567 101 0
-1568 1575 0
-1567 -101 1575 0
-1575 1568 1567 0
-1575 1568 101 0
-1568 -101 1576 0
-1576 1568 0
-1576 101 0
-1569 1577 0
-115 1577 0
-1577 1569 115 0
-1570 1578 0
-1569 -115 1578 0
-1578 1570 1569 0
-1578 1570 115 0
-1571 1579 0
-1570 -115 1579 0
-1579 1571 1570 0
-1579 1571 115 0
-1572 1580 0
-1571 -115 1580 0
-1580 1572 1571 0
-1580 1572 115 0
-1573 1581 0
-1572 -115 1581 0
-1581 1573 1572 0
-1581 1573 115 0
-1574 1582 0
-1573 -115 1582 0
-1582 1574 1573 0
-1582 1574 115 0
-1575 1583 0
-1574 -115 1583 0
-1583 1575 1574 0
-1583 1575 115 0
-1576 1584 0
-1575 -115 1584 0
-1584 1576 1575 0
-1584 1576 115 0
-1577 1585 0
-129 1585 0
-1585 1577 129 0
-1578 1586 0
-1577 -129 1586 0
-1586 1578 1577 0
-1586 1578 129 0
-1579 1587 0
-1578 -129 1587 0
-1587 1579 1578 0
-1587 1579 129 0
-1580 1588 0
-1579 -129 1588 0
-1588 1580 1579 0
-1588 1580 129 0
-1581 1589 0
-1580 -129 1589 0
-1589 1581 1580 0
-1589 1581 129 0
-1582 1590 0
-1581 -129 1590 0
-1590 1582 1581 0
-1590 1582 129 0
-1583 1591 0
-1582 -129 1591 0
-1591 1583 1582 0
-1591 1583 129 0
-1584 1592 0
-1583 -129 1592 0
-1592 1584 1583 0
-1592 1584 129 0
-1585 1593 0
-143 1593 0
-1593 1585 143 0
-1586 1594 0
-1585 -143 1594 0
-1594 1586 1585 0
-1594 1586 143 0
-1587 1595 0
-1586 -143 1595 0
-1595 1587 1586 0
-1595 1587 143 0
-1588 1596 0
-1587 -143 1596 0
-1596 1588 1587 0
-1596 1588 143 0
-1589 1597 0
-1588 -143 1597 0
-1597 1589 1588 0
-1597 1589 143 0
-1590 1598 0
-1589 -143 1598 0
-1598 1590 1589 0
-1598 1590 143 0
-1591 1599 0
-1590 -143 1599 0
-1599 1591 1590 0
-1599 1591 143 0
-1592 1600 0
-1591 -143 1600 0
-1600 1592 1591 0
-1600 1592 143 0
-1593 1601 0
-157 1601 0
-1601 1593 157 0
-1594 1602 0
-1593 -157 1602 0
-1602 1594 1593 0
-1602 1594 157 0
-1595 1603 0
-1594 -157 1603 0
-1603 1595 1594 0
-1603 1595 157 0
-1596 1604 0
-1595 -157 1604 0
-1604 1596 1595 0
-1604 1596 157 0
-1597 1605 0
-1596 -157 1605 0
-1605 1597 1596 0
-1605 1597 157 0
-1598 1606 0
-1597 -157 1606 0
-1606 1598 1597 0
-1606 1598 157 0
-1599 1607 0
-1598 -157 1607 0
-1607 1599 1598 0
-1607 1599 157 0
-1600 1608 0
-1599 -157 1608 0
-1608 1600 1599 0
-1608 1600 157 0
-1601 1609 0
-171 1609 0
-1609 1601 171 0
-1602 1610 0
-1601 -171 1610 0
-1610 1602 1601 0
-1610 1602 171 0
-1603 1611 0
-1602 -171 1611 0
-1611 1603 1602 0
-1611 1603 171 0
-1604 1612 0
-1603 -171 1612 0
-1612 1604 1603 0
-1612 1604 171 0
-1605 1613 0
-1604 -171 1613 0
-1613 1605 1604 0
-1613 1605 171 0
-1606 1614 0
-1605 -171 1614 0
-1614 1606 1605 0
-1614 1606 171 0
-1607 1615 0
-1606 -171 1615 0
-1615 1607 1606 0
-1615 1607 171 0
-1608 1616 0
-1607 -171 1616 0
-1616 1608 1607 0
-1616 1608 171 0
-1609 1617 0
-185 1617 0
-1617 1609 185 0
-1610 1618 0
-1609 -185 1618 0
-1618 1610 1609 0
-1618 1610 185 0
-1611 1619 0
-1610 -185 1619 0
-1619 1611 1610 0
-1619 1611 185 0
-1612 1620 0
-1611 -185 1620 0
-1620 1612 1611 0
-1620 1612 185 0
-1613 1621 0
-1612 -185 1621 0
-1621 1613 1612 0
-1621 1613 185 0
-1614 1622 0
-1613 -185 1622 0
-1622 1614 1613 0
-1622 1614 185 0
-1615 1623 0
-1614 -185 1623 0
-1623 1615 1614 0
-1623 1615 185 0
-1616 1624 0
-1615 -185 1624 0
-1624 1616 1615 0
-1624 1616 185 0
1623 0
-1624 0
-4 1625 0
-1625 4 0
-1625 1626 0
-18 1626 0
-1626 1625 18 0
-1625 -18 1627 0
-1627 1625 0
-1627 18 0
-1626 1628 0
-32 1628 0
-1628 1626 32 0
-1627 1629 0
-1626 -32 1629 0
-1629 1627 1626 0
-1629 1627 32 0
-1627 -32 1630 0
-1630 1627 0
-1630 32 0
-1628 1631 0
-46 1631 0
-1631 1628 46 0
-1629 1632 0
-1628 -46 1632 0
-1632 1629 1628 0
-1632 1629 46 0
-1630 1633 0
-1629 -46 1633 0
-1633 1630 1629 0
-1633 1630 46 0
-1630 -46 1634 0
-1634 1630 0
-1634 46 0
-1631 1635 0
-60 1635 0
-1635 1631 60 0
-1632 1636 0
-1631 -60 1636 0
-1636 1632 1631 0
-1636 1632 60 0
-1633 1637 0
-1632 -60 1637 0
-1637 1633 1632 0
-1637 1633 60 0
-1634 1638 0
-1633 -60 1638 0
-1638 1634 1633 0
-1638 1634 60 0
-1634 -60 1639 0
-1639 1634 0
-1639 60 0
-1635 1640 0
-74 1640 0
-1640 1635 74 0
-1636 1641 0
-1635 -74 1641 0
-1641 1636 1635 0
-1641 1636 74 0
-1637 1642 0
-1636 -74 1642 0
-1642 1637 1636 0
-1642 1637 74 0
-1638 1643 0
-1637 -74 1643 0
-1643 1638 1637 0
-1643 1638 74 0
-1639 1644 0
-1638 -74 1644 0
-1644 1639 1638 0
-1644 1639 74 0
-1639 -74 1645 0
-1645 1639 0
-1645 74 0
-1640 1646 0
-88 1646 0
-1646 1640 88 0
-1641 1647 0
-1640 -88 1647 0
-1647 1641 1640 0
-1647 1641 88 0
-1642 1648 0
-1641 -88 1648 0
-1648 1642 1641 0
-1648 1642 88 0
-1643 1649 0
-1642 -88 1649 0
-1649 1643 1642 0
-1649 1643 88 0
-1644 1650 0
-1643 -88 1650 0
-1650 1644 1643 0
-1650 1644 88 0
-1645 1651 0
-1644 -88 1651 0
-1651 1645 1644 0
-1651 1645 88 0
-1645 -88 1652 0
-1652 1645 0
-1652 88 0
-1646 1653 0
-102 1653 0
-1653 1646 102 0
-1647 1654 0
-1646 -102 1654 0
-1654 1647 1646 0
-1654 1647 102 0
-1648 1655 0
-1647 -102 1655 0
-1655 1648 1647 0
-1655 1648 102 0
-1649 1656 0
-1648 -102 1656 0
-1656 1649 1648 0
-1656 1649 102 0
-1650 1657 0
-1649 -102 1657 0
-1657 1650 1649 0
-1657 1650 102 0
-1651 1658 0
-1650 -102 1658 0
-1658 1651 1650 0
-1658 1651 102 0
-1652 1659 0
-1651 -102 1659 0
-1659 1652 1651 0
-1659 1652 102 0
-1652 -102 1660 0
-1660 1652 0
-1660 102 0
-1653 1661 0
-116 1661 0
-1661 1653 116 0
-1654 1662 0
-1653 -116 1662 0
-1662 1654 1653 0
-1662 1654 116 0
-1655 1663 0
-1654 -116 1663 0
-1663 1655 1654 0
-1663 1655 116 0
-1656 1664 0
-1655 -116 1664 0
-1664 1656 1655 0
-1664 1656 116 0
-1657 1665 0
-1656 -116 1665 0
-1665 1657 1656 0
-1665 1657 116 0
-1658 1666 0
-1657 -116 1666 0
-1666 1658 1657 0
-1666 1658 116 0
-1659 1667 0
-1658 -116 1667 0
-1667 1659 1658 0
-1667 1659 116 0
-1660 1668 0
-1659 -116 1668 0
-1668 1660 1659 0
-1668 1660 116 0
-1661 1669 0
-130 1669 0
-1669 1661 130 0
-1662 1670 0
-1661 -130 1670 0
-1670 1662 1661 0
-1670 1662 130 0
-1663 1671 0
-1662 -130 1671 0
-1671 1663 1662 0
-1671 1663 130 0
-1664 1672 0
-1663 -130 1672 0
-1672 1664 1663 0
-1672 1664 130 0
-1665 1673 0
-1664 -130 1673 0
-1673 1665 1664 0
-1673 1665 130 0
-1666 1674 0
-1665 -130 1674 0
-1674 1666 1665 0
-1674 1666 130 0
-1667 1675 0
-1666 -130 1675 0
-1675 1667 1666 0
-1675 1667 130 0
-1668 1676 0
-1667 -130 1676 0
-1676 1668 1667 0
-1676 1668 130 0
-1669 1677 0
-144 1677 0
-1677 1669 144 0
-1670 1678 0
-1669 -144 1678 0
-1678 1670 1669 0
-1678 1670 144 0
-1671 1679 0
-1670 -144 1679 0
-1679 1671 1670 0
-1679 1671 144 0
-1672 1680 0
-1671 -144 1680 0
-1680 1672 1671 0
-1680 1672 144 0
-1673 1681 0
-1672 -144 1681 0
-1681 1673 1672 0
-1681 1673 144 0
-1674 1682 0
-1673 -144 1682 0
-1682 1674 1673 0
-1682 1674 144 0
-1675 1683 0
-1674 -144 1683 0
-1683 1675 1674 0
-1683 1675 144 0
-1676 1684 0
-1675 -144 1684 0
-1684 1676 1675 0
-1684 1676 144 0
-1677 1685 0
-158 1685 0
-1685 1677 158 0
-1678 1686 0
-1677 -158 1686 0
-1686 1678 1677 0
-1686 1678 158 0
-1679 1687 0
-1678 -158 1687 0
-1687 1679 1678 0
-1687 1679 158 0
-1680 1688 0
-1679 -158 1688 0
-1688 1680 1679 0
-1688 1680 158 0
-1681 1689 0
-1680 -158 1689 0
-1689 1681 1680 0
-1689 1681 158 0
-1682 1690 0
-1681 -158 1690 0
-1690 1682 1681 0
-1690 1682 158 0
-1683 1691 0
-1682 -158 1691 0
-1691 1683 1682 0
-1691 1683 158 0
-1684 1692 0
-1683 -158 1692 0
-1692 1684 1683 0
-1692 1684 158 0
-1685 1693 0
-172 1693 0
-1693 1685 172 0
-1686 1694 0
-1685 -172 1694 0
-1694 1686 1685 0
-1694 1686 172 0
-1687 1695 0
-1686 -172 1695 0
-1695 1687 1686 0
-1695 1687 172 0
-1688 1696 0
-1687 -172 1696 0
-1696 1688 1687 0
-1696 1688 172 0
-1689 1697 0
-1688 -172 1697 0
-1697 1689 1688 0
-1697 1689 172 0
-1690 1698 0
-1689 -172 1698 0
-1698 1690 1689 0
-1698 1690 172 0
-1691 1699 0
-1690 -172 1699 0
-1699 1691 1690 0
-1699 1691 172 0
-1692 1700 0
-1691 -172 1700 0
-1700 1692 1691 0
-1700 1692 172 0
-1693 1701 0
-186 1701 0
-1701 1693 186 0
-1694 1702 0
-1693 -186 1702 0
-1702 1694 1693 0
-1702 1694 186 0
-1695 1703 0
-1694 -186 1703 0
-1703 1695 1694 0
-1703 1695 186 0
-1696 1704 0
-1695 -186 1704 0
-1704 1696 1695 0
-1704 1696 186 0
-1697 1705 0
-1696 -186 1705 0
-1705 1697 1696 0
-1705 1697 186 0
-1698 1706 0
-1697 -186 1706 0
-1706 1698 1697 0
-1706 1698 186 0
-1699 1707 0
-1698 -186 1707 0
-1707 1699 1698 0
-1707 1699 186 0
-1700 1708 0
-1699 -186 1708 0
-1708 1700 1699 0
-1708 1700 186 0
1707 0
-1708 0
-5 1709 0
-1709 5 0
-1709 1710 0
-19 1710 0
-1710 1709 19 0
-1709 -19 1711 0
-1711 1709 0
-1711 19 0
-1710 1712 0
-33 1712 0
-1712 1710 33 0
-1711 1713 0
-1710 -33 1713 0
-1713 1711 1710 0
-1713 1711 33 0
-1711 -33 1714 0
-1714 1711 0
-1714 33 0
-1712 1715 0
-47 1715 0
-1715 1712 47 0
-1713 1716 0
-1712 -47 1716 0
-1716 1713 1712 0
-1716 1713 47 0
-1714 1717 0
-1713 -47 1717 0
-1717 1714 1713 0
-1717 1714 47 0
-1714 -47 1718 0
-1718 1714 0
-1718 47 0
-1715 1719 0
-61 1719 0
-1719 1715 61 0
-1716 1720 0
-1715 -61 1720 0
-1720 1716 1715 0
-1720 1716 61 0
-1717 1721 0
-1716 -61 1721 0
-1721 1717 1716 0
-1721 1717 61 0
-1718 1722 0
-1717 -61 1722 0
-1722 1718 1717 0
-1722 1718 61 0
-1718 -61 1723 0
-1723 1718 0
-1723 61 0
-1719 1724 0
-75 1724 0
-1724 1719 75 0
-1720 1725 0
-1719 -75 1725 0
-1725 1720 1719 0
-1725 1720 75 0
-1721 1726 0
-1720 -75 1726 0
-1726 1721 1720 0
-1726 1721 75 0
-1722 1727 0
-1721 -75 1727 0
-1727 1722 1721 0
-1727 1722 75 0
-1723 1728 0
-1722 -75 1728 0
-1728 1723 1722 0
-1728 1723 75 0
-1723 -75 1729 0
-1729 1723 0
-1729 75 0
-1724 1730 0
-89 1730 0
-1730 1724 89 0
-1725 1731 0
-1724 -89 1731 0
-1731 1725 1724 0
-1731 1725 89 0
-1726 1732 0
-1725 -89 1732 0
-1732 1726 1725 0
-1732 1726 89 0
-1727 1733 0
-1726 -89 1733 0
-1733 1727 1726 0
-1733 1727 89 0
-1728 1734 0
-1727 -89 1734 0
-1734 1728 1727 0
-1734 1728 89 0
-1729 1735 0
-1728 -89 1735 0
-1735 1729 1728 0
-1735 1729 89 0
-1729 -89 1736 0
-1736 1729 0
-1736 89 0
-1730 1737 0
-103 1737 0
-1737 1730 103 0
-1731 1738 0
-1730 -103 1738 0
-1738 1731 1730 0
-1738 1731 103 0
-1732 1739 0
-1731 -103 1739 0
-1739 1732 1731 0
-1739 1732 103 0
-1733 1740 0
-1732 -103 1740 0
-1740 1733 1732 0
-1740 1733 103 0
-1734 1741 0
-1733 -103 1741 0
-1741 1734 1733 0
-1741 1734 103 0
-1735 1742 0
-1734 -103 1742 0
-1742 1735 1734 0
-1742 1735 103 0
-1736 1743 0
-1735 -103 1743 0
-1743 1736 1735 0
-1743 1736 103 0
-1736 -103 1744 0
-1744 1736 0
-1744 103 0
-1737 1745 0
-117 1745 0
-1745 1737 117 0
-1738 1746 0
-1737 -117 1746 0
-1746 1738 1737 0
-1746 1738 117 0
-1739 1747 0
-1738 -117 1747 0
-1747 1739 1738 0
-1747 1739 117 0
-1740 1748 0
-1739 -117 1748 0
-1748 1740 1739 0
-1748 1740 117 0
-1741 1749 0
-1740 -117 1749 0
-1749 1741 1740 0
-1749 1741 117 0
-1742 1750 0
-1741 -117 1750 0
-1750 1742 1741 0
-1750 1742 117 0
-1743 1751 0
-1742 -117 1751 0
-1751 1743 1742 0
-1751 1743 117 0
-1744 1752 0
-1743 -117 1752 0
-1752 1744 1743 0
-1752 1744 117 0
-1745 1753 0
-131 1753 0
-1753 1745 131 0
-1746 1754 0
-1745 -131 1754 0
-1754 1746 1745 0
-1754 1746 131 0
-1747 1755 0
-1746 -131 1755 0
-1755 1747 1746 0
-1755 1747 131 0
-1748 1756 0
-1747 -131 1756 0
-1756 1748 1747 0
-1756 1748 131 0
-1749 1757 0
-1748 -131 1757 0
-1757 1749 1748 0
-1757 1749 131 0
-1750 1758 0
-1749 -131 1758 0
-1758 1750 1749 0
-1758 1750 131 0
-1751 1759 0
-1750 -131 1759 0
-1759 1751 1750 0
-1759 1751 131 0
-1752 1760 0
-1751 -131 1760 0
-1760 1752 1751 0
-1760 1752 131 0
-1753 1761 0
-145 1761 0
-1761 1753 145 0
-1754 1762 0
-1753 -145 1762 0
-1762 1754 1753 0
-1762 1754 145 0
-1755 1763 0
-1754 -145 1763 0
-1763 1755 1754 0
-1763 1755 145 0
-1756 1764 0
-1755 -145 1764 0
-1764 1756 1755 0
-1764 1756 145 0
-1757 1765 0
-1756 -145 1765 0
-1765 1757 1756 0
-1765 1757 145 0
-1758 1766 0
-1757 -145 1766 0
-1766 1758 1757 0
-1766 1758 145 0
-1759 1767 0
-1758 -145 1767 0
-1767 1759 1758 0
-1767 1759 145 0
-1760 1768 0
-1759 -145 1768 0
-1768 1760 1759 0
-1768 1760 145 0
-1761 1769 0
-159 1769 0
-1769 1761 159 0
-1762 1770 0
-1761 -159 1770 0
-1770 1762 1761 0
-1770 1762 159 0
-1763 1771 0
-1762 -159 1771 0
-1771 1763 1762 0
-1771 1763 159 0
-1764 1772 0
-1763 -159 1772 0
-1772 1764 1763 0
-1772 1764 159 0
-1765 1773 0
-1764 -159 1773 0
-1773 1765 1764 0
-1773 1765 159 0
-1766 1774 0
-1765 -159 1774 0
-1774 1766 1765 0
-1774 1766 159 0
-1767 1775 0
-1766 -159 1775 0
-1775 1767 1766 0
-1775 1767 159 0
-1768 1776 0
-1767 -159 1776 0
-1776 1768 1767 0
-1776 1768 159 0
-1769 1777 0
-173 1777 0
-1777 1769 173 0
-1770 1778 0
-1769 -173 1778 0
-1778 1770 1769 0
-1778 1770 173 0
-1771 1779 0
-1770 -173 1779 0
-1779 1771 1770 0
-1779 1771 173 0
-1772 1780 0
-1771 -173 1780 0
-1780 1772 1771 0
-1780 1772 173 0
-1773 1781 0
-1772 -173 1781 0
-1781 1773 1772 0
-1781 1773 173 0
-1774 1782 0
-1773 -173 1782 0
-1782 1774 1773 0
-1782 1774 173 0
-1775 1783 0
-1774 -173 1783 0
-1783 1775 1774 0
-1783 1775 173 0
-1776 1784 0
-1775 -173 1784 0
-1784 1776 1775 0
-1784 1776 173 0
-1777 1785 0
-187 1785 0
-1785 1777 187 0
-1778 1786 0
-1777 -187 1786 0
-1786 1778 1777 0
-1786 1778 187 0
-1779 1787 0
-1778 -187 1787 0
-1787 1779 1778 0
-1787 1779 187 0
-1780 1788 0
-1779 -187 1788 0
-1788 1780 1779 0
-1788 1780 187 0
-1781 1789 0
-1780 -187 1789 0
-1789 1781 1780 0
-1789 1781 187 0
-1782 1790 0
-1781 -187 1790 0
-1790 1782 1781 0
-1790 1782 187 0
-1783 1791 0
-1782 -187 1791 0
-1791 1783 1782 0
-1791 1783 187 0
-1784 1792 0
-1783 -187 1792 0
-1792 1784 1783 0
-1792 1784 187 0
1791 0
-1792 0
-6 1793 0
-1793 6 0
-1793 1794 0
-20 1794 0
-1794 1793 20 0
-1793 -20 1795 0
-1795 1793 0
-1795 20 0
-1794 1796 0
-34 1796 0
-1796 1794 34 0
-1795 1797 0
-1794 -34 1797 0
-1797 1795 1794 0
-1797 1795 34 0
-1795 -34 1798 0
-1798 1795 0
-1798 34 0
-1796 1799 0
-48 1799 0
-1799 1796 48 0
-1797 1800 0
-1796 -48 1800 0
-1800 1797 1796 0
-1800 1797 48 0
-1798 1801 0
-1797 -48 1801 0
-1801 1798 1797 0
-1801 1798 48 0
-1798 -48 1802 0
-1802 1798 0
-1802 48 0
-1799 1803 0
-62 1803 0
-1803 1799 62 0
-1800 1804 0
-1799 -62 1804 0
-1804 1800 1799 0
-1804 1800 62 0
-1801 1805 0
-1800 -62 1805 0
-1805 1801 1800 0
-1805 1801 62 0
-1802 1806 0
-1801 -62 1806 0
-1806 1802 1801 0
-1806 1802 62 0
-1802 -62 1807 0
-1807 1802 0
-1807 62 0
-1803 1808 0
-76 1808 0
-1808 1803 76 0
-1804 1809 0
-1803 -76 1809 0
-1809 1804 1803 0
-1809 1804 76 0
-1805 1810 0
-1804 -76 1810 0
-1810 1805 1804 0
-1810 1805 76 0
-1806 1811 0
-1805 -76 1811 0
-1811 1806 1805 0
-1811 1806 76 0
-1807 1812 0
-1806 -76 1812 0
-1812 1807 1806 0
-1812 1807 76 0
-1807 -76 1813 0
-1813 1807 0
-1813 76 0
-1808 1814 0
-90 1814 0
-1814 1808 90 0
-1809 1815 0
-1808 -90 1815 0
-1815 1809 1808 0
-1815 1809 90 0
-1810 1816 0
-1809 -90 1816 0
-1816 1810 1809 0
-1816 1810 90 0
-1811 1817 0
-1810 -90 1817 0
-1817 1811 1810 0
-1817 1811 90 0
-1812 1818 0
-1811 -90 1818 0
-1818 1812 1811 0
-1818 1812 90 0
-1813 1819 0
-1812 -90 1819 0
-1819 1813 1812 0
-1819 1813 90 0
-1813 -90 1820 0
-1820 1813 0
-1820 90 0
-1814 1821 0
-104 1821 0
-1821 1814 104 0
-1815 1822 0
-1814 -104 1822 0
-1822 1815 1814 0
-1822 1815 104 0
-1816 1823 0
-1815 -104 1823 0
-1823 1816 1815 0
-1823 1816 104 0
-1817 1824 0
-1816 -104 1824 0
-1824 1817 1816 0
-1824 1817 104 0
-1818 1825 0
-1817 -104 1825 0
-1825 1818 1817 0
-1825 1818 104 0
-1819 1826 0
-1818 -104 1826 0
-1826 1819 1818 0
-1826 1819 104 0
-1820 1827 0
-1819 -104 1827 0
-1827 1820 1819 0
-1827 1820 104 0
-1820 -104 1828 0
-1828 1820 0
-1828 104 0
-1821 1829 0
-118 1829 0
-1829 1821 118 0
-1822 1830 0
-1821 -118 1830 0
-1830 1822 1821 0
-1830 1822 118 0
-1823 1831 0
-1822 -118 1831 0
-1831 1823 1822 0
-1831 1823 118 0
-1824 1832 0
-1823 -118 1832 0
-1832 1824 1823 0
-1832 1824 118 0
-1825 1833 0
-1824 -118 1833 0
-1833 1825 1824 0
-1833 1825 118 0
-1826 1834 0
-1825 -118 1834 0
-1834 1826 1825 0
-1834 1826 118 0
-1827 1835 0
-1826 -118 1835 0
-1835 1827 1826 0
-1835 1827 118 0
-1828 1836 0
-1827 -118 1836 0
-1836 1828 1827 0
-1836 1828 118 0
-1829 1837 0
-132 1837 0
-1837 1829 132 0
-1830 1838 0
-1829 -132 1838 0
-1838 1830 1829 0
-1838 1830 132 0
-1831 1839 0
-1830 -132 1839 0
-1839 1831 1830 0
-1839 1831 132 0
-1832 1840 0
-1831 -132 1840 0
-1840 1832 1831 0
-1840 1832 132 0
-1833 1841 0
-1832 -132 1841 0
-1841 1833 1832 0
-1841 1833 132 0
-1834 1842 0
-1833 -132 1842 0
-1842 1834 1833 0
-1842 1834 132 0
-1835 1843 0
-1834 -132 1843 0
-1843 1835 1834 0
-1843 1835 132 0
-1836 1844 0
-1835 -132 1844 0
-1844 1836 1835 0
-1844 1836 132 0
-1837 1845 0
-146 1845 0
-1845 1837 146 0
-1838 1846 0
-1837 -146 1846 0
-1846 1838 1837 0
-1846 1838 146 0
-1839 1847 0
-1838 -146 1847 0
-1847 1839 1838 0
-1847 1839 146 0
-1840 1848 0
-1839 -146 1848 0
-1848 1840 1839 0
-1848 1840 146 0
-1841 1849 0
-1840 -146 1849 0
-1849 1841 1840 0
-1849 1841 146 0
-1842 1850 0
-1841 -146 1850 0
-1850 1842 1841 0
-1850 1842 146 0
-1843 1851 0
-1842 -146 1851 0
-1851 1843 1842 0
-1851 1843 146 0
-1844 1852 0
-1843 -146 1852 0
-1852 1844 1843 0
-1852 1844 146 0
-1845 1853 0
-160 1853 0
-1853 1845 160 0
-1846 1854 0
-1845 -160 1854 0
-1854 1846 1845 0
-1854 1846 160 0
-1847 1855 0
-1846 -160 1855 0
-1855 1847 1846 0
-1855 1847 160 0
-1848 1856 0
-1847 -160 1856 0
-1856 1848 1847 0
-1856 1848 160 0
-1849 1857 0
-1848 -160 1857 0
-1857 1849 1848 0
-1857 1849 160 0
-1850 1858 0
-1849 -160 1858 0
-1858 1850 1849 0
-1858 1850 160 0
-1851 1859 0
-1850 -160 1859 0
-1859 1851 1850 0
-1859 1851 160 0
-1852 1860 0
-1851 -160 1860 0
-1860 1852 1851 0
-1860 1852 160 0
-1853 1861 0
-174 1861 0
-1861 1853 174 0
-1854 1862 0
-1853 -174 1862 0
-1862 1854 1853 0
-1862 1854 174 0
-1855 1863 0
-1854 -174 1863 0
-1863 1855 1854 0
-1863 1855 174 0
-1856 1864 0
-1855 -174 1864 0
-1864 1856 1855 0
-1864 1856 174 0
-1857 1865 0
-1856 -174 1865 0
-1865 1857 1856 0
-1865 1857 174 0
-1858 1866 0
-1857 -174 1866 0
-1866 1858 1857 0
-1866 1858 174 0
-1859 1867 0
-1858 -174 1867 0
-1867 1859 1858 0
-1867 1859 174 0
-1860 1868 0
-1859 -174 1868 0
-1868 1860 1859 0
-1868 1860 174 0
-1861 1869 0
-188 1869 0
-1869 1861 188 0
-1862 1870 0
-1861 -188 1870 0
-1870 1862 1861 0
-1870 1862 188 0
-1863 1871 0
-1862 -188 1871 0
-1871 1863 1862 0
-1871 1863 188 0
-1864 1872 0
-1863 -188 1872 0
-1872 1864 1863 0
-1872 1864 188 0
-1865 1873 0
-1864 -188 1873 0
-1873 1865 1864 0
-1873 1865 188 0
-1866 1874 0
-1865 -188 1874 0
-1874 1866 1865 0
-1874 1866 188 0
-1867 1875 0
-1866 -188 1875 0
-1875 1867 1866 0
-1875 1867 188 0
-1868 1876 0
-1867 -188 1876 0
-1876 1868 1867 0
-1876 1868 188 0
1875 0
-1876 0
-7 1877 0
-1877 7 0
-1877 1878 0
-21 1878 0
-1878 1877 21 0
-1877 -21 1879 0
-1879 1877 0
-1879 21 0
-1878 1880 0
-35 1880 0
-1880 1878 35 0
-1879 1881 0
-1878 -35 1881 0
-1881 1879 1878 0
-1881 1879 35 0
-1879 -35 1882 0
-1882 1879 0
-1882 35 0
-1880 1883 0
-49 1883 0
-1883 1880 49 0
-1881 1884 0
-1880 -49 1884 0
-1884 1881 1880 0
-1884 1881 49 0
-1882 1885 0
-1881 -49 1885 0
-1885 1882 1881 0
-1885 1882 49 0
-1882 -49 1886 0
-1886 1882 0
-1886 49 0
-1883 1887 0
-63 1887 0
-1887 1883 63 0
-1884 1888 0
-1883 -63 1888 0
-1888 1884 1883 0
-1888 1884 63 0
-1885 1889 0
-1884 -63 1889 0
-1889 1885 1884 0
-1889 1885 63 0
-1886 1890 0
-1885 -63 1890 0
-1890 1886 1885 0
-1890 1886 63 0
-1886 -63 1891 0
-1891 1886 0
-1891 63 0
-1887 1892 0
-77 1892 0
-1892 1887 77 0
-1888 1893 0
-1887 -77 1893 0
-1893 1888 1887 0
-1893 1888 77 0
-1889 1894 0
-1888 -77 1894 0
-1894 1889 1888 0
-1894 1889 77 0
-1890 1895 0
-1889 -77 1895 0
-1895 1890 1889 0
-1895 1890 77 0
-1891 1896 0
-1890 -77 1896 0
-1896 1891 1890 0
-1896 1891 77 0
-1891 -77 1897 0
-1897 1891 0
-1897 77 0
-1892 1898 0
-91 1898 0
-1898 1892 91 0
-1893 1899 0
-1892 -91 1899 0
-1899 1893 1892 0
-1899 1893 91 0
-1894 1900 0
-1893 -91 1900 0
-1900 1894 1893 0
-1900 1894 91 0
-1895 1901 0
-1894 -91 1901 0
-1901 1895 1894 0
-1901 1895 91 0
-1896 1902 0
-1895 -91 1902 0
-1902 1896 1895 0
-1902 1896 91 0
-1897 1903 0
-1896 -91 1903 0
-1903 1897 1896 0
-1903 1897 91 0
-1897 -91 1904 0
-1904 1897 0
-1904 91 0
-1898 1905 0
-105 1905 0
-1905 1898 105 0
-1899 1906 0
-1898 -105 1906 0
-1906 1899 1898 0
-1906 1899 105 0
-1900 1907 0
-1899 -105 1907 0
-1907 1900 1899 0
-1907 1900 105 0
-1901 1908 0
-1900 -105 1908 0
-1908 1901 1900 0
-1908 1901 105 0
-1902 1909 0
-1901 -105 1909 0
-1909 1902 1901 0
-1909 1902 105 0
-1903 1910 0
-1902 -105 1910 0
-1910 1903 1902 0
-1910 1903 105 0
-1904 1911 0
-1903 -105 1911 0
-1911 1904 1903 0
-1911 1904 105 0
-1904 -105 1912 0
-1912 1904 0
-1912 105 0
-1905 1913 0
-119 1913 0
-1913 1905 119 0
-1906 1914 0
-1905 -119 1914 0
-1914 1906 1905 0
-1914 1906 119 0
-1907 1915 0
-1906 -119 1915 0
-1915 1907 1906 0
-1915 1907 119 0
-1908 1916 0
-1907 -119 1916 0
-1916 1908 1907 0
-1916 1908 119 0
-1909 1917 0
-1908 -119 1917 0
-1917 1909 1908 0
-1917 1909 119 0
-1910 1918 0
-1909 -119 1918 0
-1918 1910 1909 0
-1918 1910 119 0
-1911 1919 0
-1910 -119 1919 0
-1919 1911 1910 0
-1919 1911 119 0
-1912 1920 0
-1911 -119 1920 0
-1920 1912 1911 0
-1920 1912 119 0
-1913 1921 0
-133 1921 0
-1921 1913 133 0
-1914 1922 0
-1913 -133 1922 0
-1922 1914 1913 0
-1922 1914 133 0
-1915 1923 0
-1914 -133 1923 0
-1923 1915 1914 0
-1923 1915 133 0
-1916 1924 0
-1915 -133 1924 0
-1924 1916 1915 0
-1924 1916 133 0
-1917 1925 0
-1916 -133 1925 0
-1925 1917 1916 0
-1925 1917 133 0
-1918 1926 0
-1917 -133 1926 0
-1926 1918 1917 0
-1926 1918 133 0
-1919 1927 0
-1918 -133 1927 0
-1927 1919 1918 0
-1927 1919 133 0
-1920 1928 0
-1919 -133 1928 0
-1928 1920 1919 0
-1928 1920 133 0
-1921 1929 0
-147 1929 0
-1929 1921 147 0
-1922 1930 0
-1921 -147 1930 0
-1930 1922 1921 0
-1930 1922 147 0
-1923 1931 0
-1922 -147 1931 0
-1931 1923 1922 0
-1931 1923 147 0
-1924 1932 0
-1923 -147 1932 0
-1932 1924 1923 0
-1932 1924 147 0
-1925 1933 0
-1924 -147 1933 0
-1933 1925 1924 0
-1933 1925 147 0
-1926 1934 0
-1925 -147 1934 0
-1934 1926 1925 0
-1934 1926 147 0
-1927 1935 0
-1926 -147 1935 0
-1935 1927 1926 0
-1935 1927 147 0
-1928 1936 0
-1927 -147 1936 0
-1936 1928 1927 0
-1936 1928 147 0
-1929 1937 0
-161 1937 0
-1937 1929 161 0
-1930 1938 0
-1929 -161 1938 0
-1938 1930 1929 0
-1938 1930 161 0
-1931 1939 0
-1930 -161 1939 0
-1939 1931 1930 0
-1939 1931 161 0
-1932 1940 0
-1931 -161 1940 0
-1940 1932 1931 0
-1940 1932 161 0
-1933 1941 0
-1932 -161 1941 0
-1941 1933 1932 0
-1941 1933 161 0
-1934 1942 0
-1933 -161 1942 0
-1942 1934 1933 0
-1942 1934 161 0
-1935 1943 0
-1934 -161 1943 0
-1943 1935 1934 0
-1943 1935 161 0
-1936 1944 0
-1935 -161 1944 0
-1944 1936 1935 0
-1944 1936 161 0
-1937 1945 0
-175 1945 0
-1945 1937 175 0
-1938 1946 0
-1937 -175 1946 0
-1946 1938 1937 0
-1946 1938 175 0
-1939 1947 0
-1938 -175 1947 0
-1947 1939 1938 0
-1947 1939 175 0
-1940 1948 0
-1939 -175 1948 0
-1948 1940 1939 0
-1948 1940 175 0
-1941 1949 0
-1940 -175 1949 0
-1949 1941 1940 0
-1949 1941 175 0
-1942 1950 0
-1941 -175 1950 0
-1950 1942 1941 0
-1950 1942 175 0
-1943 1951 0
-1942 -175 1951 0
-1951 1943 1942 0
-1951 1943 175 0
-1944 1952 0
-1943 -175 1952 0
-1952 1944 1943 0
-1952 1944 175 0
-1945 1953 0
-189 1953 0
-1953 1945 189 0
-1946 1954 0
-1945 -189 1954 0
-1954 1946 1945 0
-1954 1946 189 0
-1947 1955 0
-1946 -189 1955 0
-1955 1947 1946 0
-1955 1947 189 0
-1948 1956 0
-1947 -189 1956 0
-1956 1948 1947 0
-1956 1948 189 0
-1949 1957 0
-1948 -189 1957 0
-1957 1949 1948 0
-1957 1949 189 0
-1950 1958 0
-1949 -189 1958 0
-1958 1950 1949 0
-1958 1950 189 0
-1951 1959 0
-1950 -189 1959 0
-1959 1951 1950 0
-1959 1951 189 0
-1952 1960 0
-1951 -189 1960 0
-1960 1952 1951 0
-1960 1952 189 0
1959 0
-1960 0
-8 1961 0
-1961 8 0
-1961 1962 0
-22 1962 0
-1962 1961 22 0
-1961 -22 1963 0
-1963 1961 0
-1963 22 0
-1962 1964 0
-36 1964 0
-1964 1962 36 0
-1963 1965 0
-1962 -36 1965 0
-1965 1963 1962 0
-1965 1963 36 0
-1963 -36 1966 0
-1966 1963 0
-1966 36 0
-1964 1967 0
-50 1967 0
-1967 1964 50 0
-1965 1968 0
-1964 -50 1968 0
-1968 1965 1964 0
-1968 1965 50 0
-1966 1969 0
-1965 -50 1969 0
-1969 1966 1965 0
-1969 1966 50 0
-1966 -50 1970 0
-1970 1966 0
-1970 50 0
-1967 1971 0
-64 1971 0
-1971 1967 64 0
-1968 1972 0
-1967 -64 1972 0
-1972 1968 1967 0
-1972 1968 64 0
-1969 1973 0
-1968 -64 1973 0
-1973 1969 1968 0
-1973 1969 64 0
-1970 1974 0
-1969 -64 1974 0
-1974 1970 1969 0
-1974 1970 64 0
-1970 -64 1975 0
-1975 1970 0
-1975 64 0
-1971 1976 0
-78 1976 0
-1976 1971 78 0
-1972 1977 0
-1971 -78 1977 0
-1977 1972 1971 0
-1977 1972 78 0
-1973 1978 0
-1972 -78 1978 0
-1978 1973 1972 0
-1978 1973 78 0
-1974 1979 0
-1973 -78 1979 0
-1979 1974 1973 0
-1979 1974 78 0
-1975 1980 0
-1974 -78 1980 0
-1980 1975 1974 0
-1980 1975 78 0
-1975 -78 1981 0
-1981 1975 0
-1981 78 0
-1976 1982 0
-92 1982 0
-1982 1976 92 0
-1977 1983 0
-1976 -92 1983 0
-1983 1977 1976 0
-1983 1977 92 0
-1978 1984 0
-1977 -92 1984 0
-1984 1978 1977 0
-1984 1978 92 0
-1979 1985 0
-1978 -92 1985 0
-1985 1979 1978 0
-1985 1979 92 0
-1980 1986 0
-1979 -92 1986 0
-1986 1980 1979 0
-1986 1980 92 0
-1981 1987 0
-1980 -92 1987 0
-1987 1981 1980 0
-1987 1981 92 0
-1981 -92 1988 0
-1988 1981 0
-1988 92 0
-1982 1989 0
-106 1989 0
-1989 1982 106 0
-1983 1990 0
-1982 -106 1990 0
-1990 1983 1982 0
-1990 1983 106 0
-1984 1991 0
-1983 -106 1991 0
-1991 1984 1983 0
-1991 1984 106 0
-1985 1992 0
-1984 -106 1992 0
-1992 1985 1984 0
-1992 1985 106 0
-1986 1993 0
-1985 -106 1993 0
-1993 1986 1985 0
-1993 1986 106 0
-1987 1994 0
-1986 -106 1994 0
-1994 1987 1986 0
-1994 1987 106 0
-1988 1995 0
-1987 -106 1995 0
-1995 1988 1987 0
-1995 1988 106 0
-1988 -106 1996 0
-1996 1988 0
-1996 106 0
-1989 1997 0
-120 1997 0
-1997 1989 120 0
-1990 1998 0
-1989 -120 1998 0
-1998 1990 1989 0
-1998 1990 120 0
-1991 1999 0
-1990 -120 1999 0
-1999 1991 1990 0
-1999 1991 120 0
-1992 2000 0
-1991 -120 2000 0
-2000 1992 1991 0
-2000 1992 120 0
-1993 2001 0
-1992 -120 2001 0
-2001 1993 1992 0
-2001 1993 120 0
-1994 2002 0
-1993 -120 2002 0
-2002 1994 1993 0
-2002 1994 120 0
-1995 2003 0
-1994 -120 2003 0
-2003 1995 1994 0
-2003 1995 120 0
-1996 2004 0
-1995 -120 2004 0
-2004 1996 1995 0
-2004 1996 120 0
-1997 2005 0
-134 2005 0
-2005 1997 134 0
-1998 2006 0
-1997 -134 2006 0
-2006 1998 1997 0
-2006 1998 134 0
-1999 2007 0
-1998 -134 2007 0
-2007 1999 1998 0
-2007 1999 134 0
-2000 2008 0
-1999 -134 2008 0
-2008 2000 1999 0
-2008 2000 134 0
-2001 2009 0
-2000 -134 2009 0
-2009 2001 2000 0
-2009 2001 134 0
-2002 2010 0
-2001 -134 2010 0
-2010 2002 2001 0
-2010 2002 134 0
-2003 2011 0
-2002 -134 2011 0
-2011 2003 2002 0
-2011 2003 134 0
-2004 2012 0
-2003 -134 2012 0
-2012 2004 2003 0
-2012 2004 134 0
-2005 2013 0
-148 2013 0
-2013 2005 148 0
-2006 2014 0
-2005 -148 2014 0
-2014 2006 2005 0
-2014 2006 148 0
-2007 2015 0
-2006 -148 2015 0
-2015 2007 2006 0
-2015 2007 148 0
-2008 2016 0
-2007 -148 2016 0
-2016 2008 2007 0
-2016 2008 148 0
-2009 2017 0
-2008 -148 2017 0
-2017 2009 2008 0
-2017 2009 148 0
-2010 2018 0
-2009 -148 2018 0
-2018 2010 2009 0
-2018 2010 148 0
-2011 2019 0
-2010 -148 2019 0
-2019 2011 2010 0
-2019 2011 148 0
-2012 2020 0
-2011 -148 2020 0
-2020 2012 2011 0
-2020 2012 148 0
-2013 2021 0
-162 2021 0
-2021 2013 162 0
-2014 2022 0
-2013 -162 2022 0
-2022 2014 2013 0
-2022 2014 162 0
-2015 2023 0
-2014 -162 2023 0
-2023 2015 2014 0
-2023 2015 162 0
-2016 2024 0
-2015 -162 2024 0
-2024 2016 2015 0
-2024 2016 162 0
-2017 2025 0
-2016 -162 2025 0
-2025 2017 2016 0
-2025 2017 162 0
-2018 2026 0
-2017 -162 2026 0
-2026 2018 2017 0
-2026 2018 162 0
-2019 2027 0
-2018 -162 2027 0
-2027 2019 2018 0
-2027 2019 162 0
-2020 2028 0
-2019 -162 2028 0
-2028 2020 2019 0
-2028 2020 162 0
-2021 2029 0
-176 2029 0
-2029 2021 176 0
-2022 2030 0
-2021 -176 2030 0
-2030 2022 2021 0
-2030 2022 176 0
-2023 2031 0
-2022 -176 2031 0
-2031 2023 2022 0
-2031 2023 176 0
-2024 2032 0
-2023 -176 2032 0
-2032 2024 2023 0
-2032 2024 176 0
-2025 2033 0
-2024 -176 2033 0
-2033 2025 2024 0
-2033 2025 176 0
-2026 2034 0
-2025 -176 2034 0
-2034 2026 2025 0
-2034 2026 176 0
-2027 2035 0
-2026 -176 2035 0
-2035 2027 2026 0
-2035 2027 176 0
-2028 2036 0
-2027 -176 2036 0
-2036 2028 2027 0
-2036 2028 176 0
-2029 2037 0
-190 2037 0
-2037 2029 190 0
-2030 2038 0
-2029 -190 2038 0
-2038 2030 2029 0
-2038 2030 190 0
-2031 2039 0
-2030 -190 2039 0
-2039 2031 2030 0
-2039 2031 190 0
-2032 2040 0
-2031 -190 2040 0
-2040 2032 2031 0
-2040 2032 190 0
-2033 2041 0
-2032 -190 2041 0
-2041 2033 2032 0
-2041 2033 190 0
-2034 2042 0
-2033 -190 2042 0
-2042 2034 2033 0
-2042 2034 190 0
-2035 2043 0
-2034 -190 2043 0
-2043 2035 2034 0
-2043 2035 190 0
-2036 2044 0
-2035 -190 2044 0
-2044 2036 2035 0
-2044 2036 190 0
2043 0
-2044 0
-9 2045 0
-2045 9 0
-2045 2046 0
-23 2046 0
-2046 2045 23 0
-2045 -23 2047 0
-2047 2045 0
-2047 23 0
-2046 2048 0
-37 2048 0
-2048 2046 37 0
-2047 2049 0
-2046 -37 2049 0
-2049 2047 2046 0
-2049 2047 37 0
-2047 -37 2050 0
-2050 2047 0
-2050 37 0
-2048 2051 0
-51 2051 0
-2051 2048 51 0
-2049 2052 0
-2048 -51 2052 0
-2052 2049 2048 0
-2052 2049 51 0
-2050 2053 0
-2049 -51 2053 0
-2053 2050 2049 0
-2053 2050 51 0
-2050 -51 2054 0
-2054 2050 0
-2054 51 0
-2051 2055 0
-65 2055 0
-2055 2051 65 0
-2052 2056 0
-2051 -65 2056 0
-2056 2052 2051 0
-2056 2052 65 0
-2053 2057 0
-2052 -65 2057 0
-2057 2053 2052 0
-2057 2053 65 0
-2054 2058 0
-2053 -65 2058 0
-2058 2054 2053 0
-2058 2054 65 0
-2054 -65 2059 0
-2059 2054 0
-2059 65 0
-2055 2060 0
-79 2060 0
-2060 2055 79 0
-2056 2061 0
-2055 -79 2061 0
-2061 2056 2055 0
-2061 2056 79 0
-2057 2062 0
-2056 -79 2062 0
-2062 2057 2056 0
-2062 2057 79 0
-2058 2063 0
-2057 -79 2063 0
-2063 2058 2057 0
-2063 2058 79 0
-2059 2064 0
-2058 -79 2064 0
-2064 2059 2058 0
-2064 2059 79 0
-2059 -79 2065 0
-2065 2059 0
-2065 79 0
-2060 2066 0
-93 2066 0
-2066 2060 93 0
-2061 2067 0
-2060 -93 2067 0
-2067 2061 2060 0
-2067 2061 93 0
-2062 2068 0
-2061 -93 2068 0
-2068 2062 2061 0
-2068 2062 93 0
-2063 2069 0
-2062 -93 2069 0
-2069 2063 2062 0
-2069 2063 93 0
-2064 2070 0
-2063 -93 2070 0
-2070 2064 2063 0
-2070 2064 93 0
-2065 2071 0
-2064 -93 2071 0
-2071 2065 2064 0
-2071 2065 93 0
-2065 -93 2072 0
-2072 2065 0
-2072 93 0
-2066 2073 0
-107 2073 0
-2073 2066 107 0
-2067 2074 0
-2066 -107 2074 0
-2074 2067 2066 0
-2074 2067 107 0
-2068 2075 0
-2067 -107 2075 0
-2075 2068 2067 0
-2075 2068 107 0
-2069 2076 0
-2068 -107 2076 0
-2076 2069 2068 0
-2076 2069 107 0
-2070 2077 0
-2069 -107 2077 0
-2077 2070 2069 0
-2077 2070 107 0
-2071 2078 0
-2070 -107 2078 0
-2078 2071 2070 0
-2078 2071 107 0
-2072 2079 0
-2071 -107 2079 0
-2079 2072 2071 0
-2079 2072 107 0
-2072 -107 2080 0
-2080 2072 0
-2080 107 0
-2073 2081 0
-121 2081 0
-2081 2073 121 0
-2074 2082 0
-2073 -121 2082 0
-2082 2074 2073 0
-2082 2074 121 0
-2075 2083 0
-2074 -121 2083 0
-2083 2075 2074 0
-2083 2075 121 0
-2076 2084 0
-2075 -121 2084 0
-2084 2076 2075 0
-2084 2076 121 0
-2077 2085 0
-2076 -121 2085 0
-2085 2077 2076 0
-2085 2077 121 0
-2078 2086 0
-2077 -121 2086 0
-2086 2078 2077 0
-2086 2078 121 0
-2079 2087 0
-2078 -121 2087 0
-2087 2079 2078 0
-2087 2079 121 0
-2080 2088 0
-2079 -121 2088 0
-2088 2080 2079 0
-2088 2080 121 0
-2081 2089 0
-135 2089 0
-2089 2081 135 0
-2082 2090 0
-2081 -135 2090 0
-2090 2082 2081 0
-2090 2082 135 0
-2083 2091 0
-2082 -135 2091 0
-2091 2083 2082 0
-2091 2083 135 0
-2084 2092 0
-2083 -135 2092 0
-2092 2084 2083 0
-2092 2084 135 0
-2085 2093 0
-2084 -135 2093 0
-2093 2085 2084 0
-2093 2085 135 0
-2086 2094 0
-2085 -135 2094 0
-2094 2086 2085 0
-2094 2086 135 0
-2087 2095 0
-2086 -135 2095 0
-2095 2087 2086 0
-2095 2087 135 0
-2088 2096 0
-2087 -135 2096 0
-2096 2088 2087 0
-2096 2088 135 0
-2089 2097 0
-149 2097 0
-2097 2089 149 0
-2090 2098 0
-2089 -149 2098 0
-2098 2090 2089 0
-2098 2090 149 0
-2091 2099 0
-2090 -149 2099 0
-2099 2091 2090 0
-2099 2091 149 0
-2092 2100 0
-2091 -149 2100 0
-2100 2092 2091 0
-2100 2092 149 0
-2093 2101 0
-2092 -149 2101 0
-2101 2093 2092 0
-2101 2093 149 0
-2094 2102 0
-2093 -149 2102 0
-2102 2094 2093 0
-2102 2094 149 0
-2095 2103 0
-2094 -149 2103 0
-2103 2095 2094 0
-2103 2095 149 0
-2096 2104 0
-2095 -149 2104 0
-2104 2096 2095 0
-2104 2096 149 0
-2097 2105 0
-163 2105 0
-2105 2097 163 0
-2098 2106 0
-2097 -163 2106 0
-2106 2098 2097 0
-2106 2098 163 0
-2099 2107 0
-2098 -163 2107 0
-2107 2099 2098 0
-2107 2099 163 0
-2100 2108 0
-2099 -163 2108 0
-2108 2100 2099 0
-2108 2100 163 0
-2101 2109 0
-2100 -163 2109 0
-2109 2101 2100 0
-2109 2101 163 0
-2102 2110 0
-2101 -163 2110 0
-2110 2102 2101 0
-2110 2102 163 0
-2103 2111 0
-2102 -163 2111 0
-2111 2103 2102 0
-2111 2103 163 0
-2104 2112 0
-2103 -163 2112 0
-2112 2104 2103 0
-2112 2104 163 0
-2105 2113 0
-177 2113 0
-2113 2105 177 0
-2106 2114 0
-2105 -177 2114 0
-2114 2106 2105 0
-2114 2106 177 0
-2107 2115 0
-2106 -177 2115 0
-2115 2107 2106 0
-2115 2107 177 0
-2108 2116 0
-2107 -177 2116 0
-2116 2108 2107 0
-2116 2108 177 0
-2109 2117 0
-2108 -177 2117 0
-2117 2109 2108 0
-2117 2109 177 0
-2110 2118 0
-2109 -177 2118 0
-2118 2110 2109 0
-2118 2110 177 0
-2111 2119 0
-2110 -177 2119 0
-2119 2111 2110 0
-2119 2111 177 0
-2112 2120 0
-2111 -177 2120 0
-2120 2112 2111 0
-2120 2112 177 0
-2113 2121 0
-191 2121 0
-2121 2113 191 0
-2114 2122 0
-2113 -191 2122 0
-2122 2114 2113 0
-2122 2114 191 0
-2115 2123 0
-2114 -191 2123 0
-2123 2115 2114 0
-2123 2115 191 0
-2116 2124 0
-2115 -191 2124 0
-2124 2116 2115 0
-2124 2116 191 0
-2117 2125 0
-2116 -191 2125 0
-2125 2117 2116 0
-2125 2117 191 0
-2118 2126 0
-2117 -191 2126 0
-2126 2118 2117 0
-2126 2118 191 0
-2119 2127 0
-2118 -191 2127 0
-2127 2119 2118 0
-2127 2119 191 0
-2120 2128 0
-2119 -191 2128 0
-2128 2120 2119 0
-2128 2120 191 0
2127 0
-2128 0
-10 2129 0
-2129 10 0
-2129 2130 0
-24 2130 0
-2130 2129 24 0
-2129 -24 2131 0
-2131 2129 0
-2131 24 0
-2130 2132 0
-38 2132 0
-2132 2130 38 0
-2131 2133 0
-2130 -38 2133 0
-2133 2131 2130 0
-2133 2131 38 0
-2131 -38 2134 0
-2134 2131 0
-2134 38 0
-2132 2135 0
-52 2135 0
-2135 2132 52 0
-2133 2136 0
-2132 -52 2136 0
-2136 2133 2132 0
-2136 2133 52 0
-2134 2137 0
-2133 -52 2137 0
-2137 2134 2133 0
-2137 2134 52 0
-2134 -52 2138 0
-2138 2134 0
-2138 52 0
-2135 2139 0
-66 2139 0
-2139 2135 66 0
-2136 2140 0
-2135 -66 2140 0
-2140 2136 2135 0
-2140 2136 66 0
-2137 2141 0
-2136 -66 2141 0
-2141 2137 2136 0
-2141 2137 66 0
-2138 2142 0
-2137 -66 2142 0
-2142 2138 2137 0
-2142 2138 66 0
-2138 -66 2143 0
-2143 2138 0
-2143 66 0
-2139 2144 0
-80 2144 0
-2144 2139 80 0
-2140 2145 0
-2139 -80 2145 0
-2145 2140 2139 0
-2145 2140 80 0
-2141 2146 0
-2140 -80 2146 0
-2146 2141 2140 0
-2146 2141 80 0
-2142 2147 0
-2141 -80 2147 0
-2147 2142 2141 0
-2147 2142 80 0
-2143 2148 0
-2142 -80 2148 0
-2148 2143 2142 0
-2148 2143 80 0
-2143 -80 2149 0
-2149 2143 0
-2149 80 0
-2144 2150 0
-94 2150 0
-2150 2144 94 0
-2145 2151 0
-2144 -94 2151 0
-2151 2145 2144 0
-2151 2145 94 0
-2146 2152 0
-2145 -94 2152 0
-2152 2146 2145 0
-2152 2146 94 0
-2147 2153 0
-2146 -94 2153 0
-2153 2147 2146 0
-2153 2147 94 0
-2148 2154 0
-2147 -94 2154 0
-2154 2148 2147 0
-2154 2148 94 0
-2149 2155 0
-2148 -94 2155 0
-2155 2149 2148 0
-2155 2149 94 0
-2149 -94 2156 0
-2156 2149 0
-2156 94 0
-2150 2157 0
-108 2157 0
-2157 2150 108 0
-2151 2158 0
-2150 -108 2158 0
-2158 2151 2150 0
-2158 2151 108 0
-2152 2159 0
-2151 -108 2159 0
-2159 2152 2151 0
-2159 2152 108 0
-2153 2160 0
-2152 -108 2160 0
-2160 2153 2152 0
-2160 2153 108 0
-2154 2161 0
-2153 -108 2161 0
-2161 2154 2153 0
-2161 2154 108 0
-2155 2162 0
-2154 -108 2162 0
-2162 2155 2154 0
-2162 2155 108 0
-2156 2163 0
-2155 -108 2163 0
-2163 2156 2155 0
-2163 2156 108 0
-2156 -108 2164 0
-2164 2156 0
-2164 108 0
-2157 2165 0
-122 2165 0
-2165 2157 122 0
-2158 2166 0
-2157 -122 2166 0
-2166 2158 2157 0
-2166 2158 122 0
-2159 2167 0
-2158 -122 2167 0
-2167 2159 2158 0
-2167 2159 122 0
-2160 2168 0
-2159 -122 2168 0
-2168 2160 2159 0
-2168 2160 122 0
-2161 2169 0
-2160 -122 2169 0
-2169 2161 2160 0
-2169 2161 122 0
-2162 2170 0
-2161 -122 2170 0
-2170 2162 2161 0
-2170 2162 122 0
-2163 2171 0
-2162 -122 2171 0
-2171 2163 2162 0
-2171 2163 122 0
-2164 2172 0
-2163 -122 2172 0
-2172 2164 2163 0
-2172 2164 122 0
-2165 2173 0
-136 2173 0
-2173 2165 136 0
-2166 2174 0
-2165 -136 2174 0
-2174 2166 2165 0
-2174 2166 136 0
-2167 2175 0
-2166 -136 2175 0
-2175 2167 2166 0
-2175 2167 136 0
-2168 2176 0
-2167 -136 2176 0
-2176 2168 2167 0
-2176 2168 136 0
-2169 2177 0
-2168 -136 2177 0
-2177 2169 2168 0
-2177 2169 136 0
-2170 2178 0
-2169 -136 2178 0
-2178 2170 2169 0
-2178 2170 136 0
-2171 2179 0
-2170 -136 2179 0
-2179 2171 2170 0
-2179 2171 136 0
-2172 2180 0
-2171 -136 2180 0
-2180 2172 2171 0
-2180 2172 136 0
-2173 2181 0
-150 2181 0
-2181 2173 150 0
-2174 2182 0
-2173 -150 2182 0
-2182 2174 2173 0
-2182 2174 150 0
-2175 2183 0
-2174 -150 2183 0
-2183 2175 2174 0
-2183 2175 150 0
-2176 2184 0
-2175 -150 2184 0
-2184 2176 2175 0
-2184 2176 150 0
-2177 2185 0
-2176 -150 2185 0
-2185 2177 2176 0
-2185 2177 150 0
-2178 2186 0
-2177 -150 2186 0
-2186 2178 2177 0
-2186 2178 150 0
-2179 2187 0
-2178 -150 2187 0
-2187 2179 2178 0
-2187 2179 150 0
-2180 2188 0
-2179 -150 2188 0
-2188 2180 2179 0
-2188 2180 150 0
-2181 2189 0
-164 2189 0
-2189 2181 164 0
-2182 2190 0
-2181 -164 2190 0
-2190 2182 2181 0
-2190 2182 164 0
-2183 2191 0
-2182 -164 2191 0
-2191 2183 2182 0
-2191 2183 164 0
-2184 2192 0
-2183 -164 2192 0
-2192 2184 2183 0
-2192 2184 164 0
-2185 2193 0
-2184 -164 2193 0
-2193 2185 2184 0
-2193 2185 164 0
-2186 2194 0
-2185 -164 2194 0
-2194 2186 2185 0
-2194 2186 164 0
-2187 2195 0
-2186 -164 2195 0
-2195 2187 2186 0
-2195 2187 164 0
-2188 2196 0
-2187 -164 2196 0
-2196 2188 2187 0
-2196 2188 164 0
-2189 2197 0
-178 2197 0
-2197 2189 178 0
-2190 2198 0
-2189 -178 2198 0
-2198 2190 2189 0
-2198 2190 178 0
-2191 2199 0
-2190 -178 2199 0
-2199 2191 2190 0
-2199 2191 178 0
-2192 2200 0
-2191 -178 2200 0
-2200 2192 2191 0
-2200 2192 178 0
-2193 2201 0
-2192 -178 2201 0
-2201 2193 2192 0
-2201 2193 178 0
-2194 2202 0
-2193 -178 2202 0
-2202 2194 2193 0
-2202 2194 178 0
-2195 2203 0
-2194 -178 2203 0
-2203 2195 2194 0
-2203 2195 178 0
-2196 2204 0
-2195 -178 2204 0
-2204 2196 2195 0
-2204 2196 178 0
-2197 2205 0
-192 2205 0
-2205 2197 192 0
-2198 2206 0
-2197 -192 2206 0
-2206 2198 2197 0
-2206 2198 192 0
-2199 2207 0
-2198 -192 2207 0
-2207 2199 2198 0
-2207 2199 192 0
-2200 2208 0
-2199 -192 2208 0
-2208 2200 2199 0
-2208 2200 192 0
-2201 2209 0
-2200 -192 2209 0
-2209 2201 2200 0
-2209 2201 192 0
-2202 2210 0
-2201 -192 2210 0
-2210 2202 2201 0
-2210 2202 192 0
-2203 2211 0
-2202 -192 2211 0
-2211 2203 2202 0
-2211 2203 192 0
-2204 2212 0
-2203 -192 2212 0
-2212 2204 2203 0
-2212 2204 192 0
2211 0
-2212 0
-11 2213 0
-2213 11 0
-2213 2214 0
-25 2214 0
-2214 2213 25 0
-2213 -25 2215 0
-2215 2213 0
-2215 25 0
-2214 2216 0
-39 2216 0
-2216 2214 39 0
-2215 2217 0
-2214 -39 2217 0
-2217 2215 2214 0
-2217 2215 39 0
-2215 -39 2218 0
-2218 2215 0
-2218 39 0
-2216 2219 0
-53 2219 0
-2219 2216 53 0
-2217 2220 0
-2216 -53 2220 0
-2220 2217 2216 0
-2220 2217 53 0
-2218 2221 0
-2217 -53 2221 0
-2221 2218 2217 0
-2221 2218 53 0
-2218 -53 2222 0
-2222 2218 0
-2222 53 0
-2219 2223 0
-67 2223 0
-2223 2219 67 0
-2220 2224 0
-2219 -67 2224 0
-2224 2220 2219 0
-2224 2220 67 0
-2221 2225 0
-2220 -67 2225 0
-2225 2221 2220 0
-2225 2221 67 0
-2222 2226 0
-2221 -67 2226 0
-2226 2222 2221 0
-2226 2222 67 0
-2222 -67 2227 0
-2227 2222 0
-2227 67 0
-2223 2228 0
-81 2228 0
-2228 2223 81 0
-2224 2229 0
-2223 -81 2229 0
-2229 2224 2223 0
-2229 2224 81 0
-2225 2230 0
-2224 -81 2230 0
-2230 2225 2224 0
-2230 2225 81 0
-2226 2231 0
-2225 -81 2231 0
-2231 2226 2225 0
-2231 2226 81 0
-2227 2232 0
-2226 -81 2232 0
-2232 2227 2226 0
-2232 2227 81 0
-2227 -81 2233 0
-2233 2227 0
-2233 81 0
-2228 2234 0
-95 2234 0
-2234 2228 95 0
-2229 2235 0
-2228 -95 2235 0
-2235 2229 2228 0
-2235 2229 95 0
-2230 2236 0
-2229 -95 2236 0
-2236 2230 2229 0
-2236 2230 95 0
-2231 2237 0
-2230 -95 2237 0
-2237 2231 2230 0
-2237 2231 95 0
-2232 2238 0
-2231 -95 2238 0
-2238 2232 2231 0
-2238 2232 95 0
-2233 2239 0
-2232 -95 2239 0
-2239 2233 2232 0
-2239 2233 95 0
-2233 -95 2240 0
-2240 2233 0
-2240 95 0
-2234 2241 0
-109 2241 0
-2241 2234 109 0
-2235 2242 0
-2234 -109 2242 0
-2242 2235 2234 0
-2242 2235 109 0
-2236 2243 0
-2235 -109 2243 0
-2243 2236 2235 0
-2243 2236 109 0
-2237 2244 0
-2236 -109 2244 0
-2244 2237 2236 0
-2244 2237 109 0
-2238 2245 0
-2237 -109 2245 0
-2245 2238 2237 0
-2245 2238 109 0
-2239 2246 0
-2238 -109 2246 0
-2246 2239 2238 0
-2246 2239 109 0
-2240 2247 0
-2239 -109 2247 0
-2247 2240 2239 0
-2247 2240 109 0
-2240 -109 2248 0
-2248 2240 0
-2248 109 0
-2241 2249 0
-123 2249 0
-2249 2241 123 0
-2242 2250 0
-2241 -123 2250 0
-2250 2242 2241 0
-2250 2242 123 0
-2243 2251 0
-2242 -123 2251 0
-2251 2243 2242 0
-2251 2243 123 0
-2244 2252 0
-2243 -123 2252 0
-2252 2244 2243 0
-2252 2244 123 0
-2245 2253 0
-2244 -123 2253 0
-2253 2245 2244 0
-2253 2245 123 0
-2246 2254 0
-2245 -123 2254 0
-2254 2246 2245 0
-2254 2246 123 0
-2247 2255 0
-2246 -123 2255 0
-2255 2247 2246 0
-2255 2247 123 0
-2248 2256 0
-2247 -123 2256 0
-2256 2248 2247 0
-2256 2248 123 0
-2249 2257 0
-137 2257 0
-2257 2249 137 0
-2250 2258 0
-2249 -137 2258 0
-2258 2250 2249 0
-2258 2250 137 0
-2251 2259 0
-2250 -137 2259 0
-2259 2251 2250 0
-2259 2251 137 0
-2252 2260 0
-2251 -137 2260 0
-2260 2252 2251 0
-2260 2252 137 0
-2253 2261 0
-2252 -137 2261 0
-2261 2253 2252 0
-2261 2253 137 0
-2254 2262 0
-2253 -137 2262 0
-2262 2254 2253 0
-2262 2254 137 0
-2255 2263 0
-2254 -137 2263 0
-2263 2255 2254 0
-2263 2255 137 0
-2256 2264 0
-2255 -137 2264 0
-2264 2256 2255 0
-2264 2256 137 0
-2257 2265 0
-151 2265 0
-2265 2257 151 0
-2258 2266 0
-2257 -151 2266 0
-2266 2258 2257 0
-2266 2258 151 0
-2259 2267 0
-2258 -151 2267 0
-2267 2259 2258 0
-2267 2259 151 0
-2260 2268 0
-2259 -151 2268 0
-2268 2260 2259 0
-2268 2260 151 0
-2261 2269 0
-2260 -151 2269 0
-2269 2261 2260 0
-2269 2261 151 0
-2262 2270 0
-2261 -151 2270 0
-2270 2262 2261 0
-2270 2262 151 0
-2263 2271 0
-2262 -151 2271 0
-2271 2263 2262 0
-2271 2263 151 0
-2264 2272 0
-2263 -151 2272 0
-2272 2264 2263 0
-2272 2264 151 0
-2265 2273 0
-165 2273 0
-2273 2265 165 0
-2266 2274 0
-2265 -165 2274 0
-2274 2266 2265 0
-2274 2266 165 0
-2267 2275 0
-2266 -165 2275 0
-2275 2267 2266 0
-2275 2267 165 0
-2268 2276 0
-2267 -165 2276 0
-2276 2268 2267 0
-2276 2268 165 0
-2269 2277 0
-2268 -165 2277 0
-2277 2269 2268 0
-2277 2269 165 0
-2270 2278 0
-2269 -165 2278 0
-2278 2270 2269 0
-2278 2270 165 0
-2271 2279 0
-2270 -165 2279 0
-2279 2271 2270 0
-2279 2271 165 0
-2272 2280 0
-2271 -165 2280 0
-2280 2272 2271 0
-2280 2272 165 0
-2273 2281 0
-179 2281 0
-2281 2273 179 0
-2274 2282 0
-2273 -179 2282 0
-2282 2274 2273 0
-2282 2274 179 0
-2275 2283 0
-2274 -179 2283 0
-2283 2275 2274 0
-2283 2275 179 0
-2276 2284 0
-2275 -179 2284 0
-2284 2276 2275 0
-2284 2276 179 0
-2277 2285 0
-2276 -179 2285 0
-2285 2277 2276 0
-2285 2277 179 0
-2278 2286 0
-2277 -179 2286 0
-2286 2278 2277 0
-2286 2278 179 0
-2279 2287 0
-2278 -179 2287 0
-2287 2279 2278 0
-2287 2279 179 0
-2280 2288 0
-2279 -179 2288 0
-2288 2280 2279 0
-2288 2280 179 0
-2281 2289 0
-193 2289 0
-2289 2281 193 0
-2282 2290 0
-2281 -193 2290 0
-2290 2282 2281 0
-2290 2282 193 0
-2283 2291 0
-2282 -193 2291 0
-2291 2283 2282 0
-2291 2283 193 0
-2284 2292 0
-2283 -193 2292 0
-2292 2284 2283 0
-2292 2284 193 0
-2285 2293 0
-2284 -193 2293 0
-2293 2285 2284 0
-2293 2285 193 0
-2286 2294 0
-2285 -193 2294 0
-2294 2286 2285 0
-2294 2286 193 0
-2287 2295 0
-2286 -193 2295 0
-2295 2287 2286 0
-2295 2287 193 0
-2288 2296 0
-2287 -193 2296 0
-2296 2288 2287 0
-2296 2288 193 0
2295 0
-2296 0
-12 2297 0
-2297 12 0
-2297 2298 0
-26 2298 0
-2298 2297 26 0
-2297 -26 2299 0
-2299 2297 0
-2299 26 0
-2298 2300 0
-40 2300 0
-2300 2298 40 0
-2299 2301 0
-2298 -40 2301 0
-2301 2299 2298 0
-2301 2299 40 0
-2299 -40 2302 0
-2302 2299 0
-2302 40 0
-2300 2303 0
-54 2303 0
-2303 2300 54 0
-2301 2304 0
-2300 -54 2304 0
-2304 2301 2300 0
-2304 2301 54 0
-2302 2305 0
-2301 -54 2305 0
-2305 2302 2301 0
-2305 2302 54 0
-2302 -54 2306 0
-2306 2302 0
-2306 54 0
-2303 2307 0
-68 2307 0
-2307 2303 68 0
-2304 2308 0
-2303 -68 2308 0
-2308 2304 2303 0
-2308 2304 68 0
-2305 2309 0
-2304 -68 2309 0
-2309 2305 2304 0
-2309 2305 68 0
-2306 2310 0
-2305 -68 2310 0
-2310 2306 2305 0
-2310 2306 68 0
-2306 -68 2311 0
-2311 2306 0
-2311 68 0
-2307 2312 0
-82 2312 0
-2312 2307 82 0
-2308 2313 0
-2307 -82 2313 0
-2313 2308 2307 0
-2313 2308 82 0
-2309 2314 0
-2308 -82 2314 0
-2314 2309 2308 0
-2314 2309 82 0
-2310 2315 0
-2309 -82 2315 0
-2315 2310 2309 0
-2315 2310 82 0
-2311 2316 0
-2310 -82 2316 0
-2316 2311 2310 0
-2316 2311 82 0
-2311 -82 2317 0
-2317 2311 0
-2317 82 0
-2312 2318 0
-96 2318 0
-2318 2312 96 0
-2313 2319 0
-2312 -96 2319 0
-2319 2313 2312 0
-2319 2313 96 0
-2314 2320 0
-2313 -96 2320 0
-2320 2314 2313 0
-2320 2314 96 0
-2315 2321 0
-2314 -96 2321 0
-2321 2315 2314 0
-2321 2315 96 0
-2316 2322 0
-2315 -96 2322 0
-2322 2316 2315 0
-2322 2316 96 0
-2317 2323 0
-2316 -96 2323 0
-2323 2317 2316 0
-2323 2317 96 0
-2317 -96 2324 0
-2324 2317 0
-2324 96 0
-2318 2325 0
-110 2325 0
-2325 2318 110 0
-2319 2326 0
-2318 -110 2326 0
-2326 2319 2318 0
-2326 2319 110 0
-2320 2327 0
-2319 -110 2327 0
-2327 2320 2319 0
-2327 2320 110 0
-2321 2328 0
-2320 -110 2328 0
-2328 2321 2320 0
-2328 2321 110 0
-2322 2329 0
-2321 -110 2329 0
-2329 2322 2321 0
-2329 2322 110 0
-2323 2330 0
-2322 -110 2330 0
-2330 2323 2322 0
-2330 2323 110 0
-2324 2331 0
-2323 -110 2331 0
-2331 2324 2323 0
-2331 2324 110 0
-2324 -110 2332 0
-2332 2324 0
-2332 110 0
-2325 2333 0
-124 2333 0
-2333 2325 124 0
-2326 2334 0
-2325 -124 2334 0
-2334 2326 2325 0
-2334 2326 124 0
-2327 2335 0
-2326 -124 2335 0
-2335 2327 2326 0
-2335 2327 124 0
-2328 2336 0
-2327 -124 2336 0
-2336 2328 2327 0
-2336 2328 124 0
-2329 2337 0
-2328 -124 2337 0
-2337 2329 2328 0
-2337 2329 124 0
-2330 2338 0
-2329 -124 2338 0
-2338 2330 2329 0
-2338 2330 124 0
-2331 2339 0
-2330 -124 2339 0
-2339 2331 2330 0
-2339 2331 124 0
-2332 2340 0
-2331 -124 2340 0
-2340 2332 2331 0
-2340 2332 124 0
-2333 2341 0
-138 2341 0
-2341 2333 138 0
-2334 2342 0
-2333 -138 2342 0
-2342 2334 2333 0
-2342 2334 138 0
-2335 2343 0
-2334 -138 2343 0
-2343 2335 2334 0
-2343 2335 138 0
-2336 2344 0
-2335 -138 2344 0
-2344 2336 2335 0
-2344 2336 138 0
-2337 2345 0
-2336 -138 2345 0
-2345 2337 2336 0
-2345 2337 138 0
-2338 2346 0
-2337 -138 2346 0
-2346 2338 2337 0
-2346 2338 138 0
-2339 2347 0
-2338 -138 2347 0
-2347 2339 2338 0
-2347 2339 138 0
-2340 2348 0
-2339 -138 2348 0
-2348 2340 2339 0
-2348 2340 138 0
-2341 2349 0
-152 2349 0
-2349 2341 152 0
-2342 2350 0
-2341 -152 2350 0
-2350 2342 2341 0
-2350 2342 152 0
-2343 2351 0
-2342 -152 2351 0
-2351 2343 2342 0
-2351 2343 152 0
-2344 2352 0
-2343 -152 2352 0
-2352 2344 2343 0
-2352 2344 152 0
-2345 2353 0
-2344 -152 2353 0
-2353 2345 2344 0
-2353 2345 152 0
-2346 2354 0
-2345 -152 2354 0
-2354 2346 2345 0
-2354 2346 152 0
-2347 2355 0
-2346 -152 2355 0
-2355 2347 2346 0
-2355 2347 152 0
-2348 2356 0
-2347 -152 2356 0
-2356 2348 2347 0
-2356 2348 152 0
-2349 2357 0
-166 2357 0
-2357 2349 166 0
-2350 2358 0
-2349 -166 2358 0
-2358 2350 2349 0
-2358 2350 166 0
-2351 2359 0
-2350 -166 2359 0
-2359 2351 2350 0
-2359 2351 166 0
-2352 2360 0
-2351 -166 2360 0
-2360 2352 2351 0
-2360 2352 166 0
-2353 2361 0
-2352 -166 2361 0
-2361 2353 2352 0
-2361 2353 166 0
-2354 2362 0
-2353 -166 2362 0
-2362 2354 2353 0
-2362 2354 166 0
-2355 2363 0
-2354 -166 2363 0
-2363 2355 2354 0
-2363 2355 166 0
-2356 2364 0
-2355 -166 2364 0
-2364 2356 2355 0
-2364 2356 166 0
-2357 2365 0
-180 2365 0
-2365 2357 180 0
-2358 2366 0
-2357 -180 2366 0
-2366 2358 2357 0
-2366 2358 180 0
-2359 2367 0
-2358 -180 2367 0
-2367 2359 2358 0
-2367 2359 180 0
-2360 2368 0
-2359 -180 2368 0
-2368 2360 2359 0
-2368 2360 180 0
-2361 2369 0
-2360 -180 2369 0
-2369 2361 2360 0
-2369 2361 180 0
-2362 2370 0
-2361 -180 2370 0
-2370 2362 2361 0
-2370 2362 180 0
-2363 2371 0
-2362 -180 2371 0
-2371 2363 2362 0
-2371 2363 180 0
-2364 2372 0
-2363 -180 2372 0
-2372 2364 2363 0
-2372 2364 180 0
-2365 2373 0
-194 2373 0
-2373 2365 194 0
-2366 2374 0
-2365 -194 2374 0
-2374 2366 2365 0
-2374 2366 194 0
-2367 2375 0
-2366 -194 2375 0
-2375 2367 2366 0
-2375 2367 194 0
-2368 2376 0
-2367 -194 2376 0
-2376 2368 2367 0
-2376 2368 194 0
-2369 2377 0
-2368 -194 2377 0
-2377 2369 2368 0
-2377 2369 194 0
-2370 2378 0
-2369 -194 2378 0
-2378 2370 2369 0
-2378 2370 194 0
-2371 2379 0
-2370 -194 2379 0
-2379 2371 2370 0
-2379 2371 194 0
-2372 2380 0
-2371 -194 2380 0
-2380 2372 2371 0
-2380 2372 194 0
2379 0
-2380 0
-13 2381 0
-2381 13 0
-2381 2382 0
-27 2382 0
-2382 2381 27 0
-2381 -27 2383 0
-2383 2381 0
-2383 27 0
-2382 2384 0
-41 2384 0
-2384 2382 41 0
-2383 2385 0
-2382 -41 2385 0
-2385 2383 2382 0
-2385 2383 41 0
-2383 -41 2386 0
-2386 2383 0
-2386 41 0
-2384 2387 0
-55 2387 0
-2387 2384 55 0
-2385 2388 0
-2384 -55 2388 0
-2388 2385 2384 0
-2388 2385 55 0
-2386 2389 0
-2385 -55 2389 0
-2389 2386 2385 0
-2389 2386 55 0
-2386 -55 2390 0
-2390 2386 0
-2390 55 0
-2387 2391 0
-69 2391 0
-2391 2387 69 0
-2388 2392 0
-2387 -69 2392 0
-2392 2388 2387 0
-2392 2388 69 0
-2389 2393 0
-2388 -69 2393 0
-2393 2389 2388 0
-2393 2389 69 0
-2390 2394 0
-2389 -69 2394 0
-2394 2390 2389 0
-2394 2390 69 0
-2390 -69 2395 0
-2395 2390 0
-2395 69 0
-2391 2396 0
-83 2396 0
-2396 2391 83 0
-2392 2397 0
-2391 -83 2397 0
-2397 2392 2391 0
-2397 2392 83 0
-2393 2398 0
-2392 -83 2398 0
-2398 2393 2392 0
-2398 2393 83 0
-2394 2399 0
-2393 -83 2399 0
-2399 2394 2393 0
-2399 2394 83 0
-2395 2400 0
-2394 -83 2400 0
-2400 2395 2394 0
-2400 2395 83 0
-2395 -83 2401 0
-2401 2395 0
-2401 83 0
-2396 2402 0
-97 2402 0
-2402 2396 97 0
-2397 2403 0
-2396 -97 2403 0
-2403 2397 2396 0
-2403 2397 97 0
-2398 2404 0
-2397 -97 2404 0
-2404 2398 2397 0
-2404 2398 97 0
-2399 2405 0
-2398 -97 2405 0
-2405 2399 2398 0
-2405 2399 97 0
-2400 2406 0
-2399 -97 2406 0
-2406 2400 2399 0
-2406 2400 97 0
-2401 2407 0
-2400 -97 2407 0
-2407 2401 2400 0
-2407 2401 97 0
-2401 -97 2408 0
-2408 2401 0
-2408 97 0
-2402 2409 0
-111 2409 0
-2409 2402 111 0
-2403 2410 0
-2402 -111 2410 0
-2410 2403 2402 0
-2410 2403 111 0
-2404 2411 0
-2403 -111 2411 0
-2411 2404 2403 0
-2411 2404 111 0
-2405 2412 0
-2404 -111 2412 0
-2412 2405 2404 0
-2412 2405 111 0
-2406 2413 0
-2405 -111 2413 0
-2413 2406 2405 0
-2413 2406 111 0
-2407 2414 0
-2406 -111 2414 0
-2414 2407 2406 0
-2414 2407 111 0
-2408 2415 0
-2407 -111 2415 0
-2415 2408 2407 0
-2415 2408 111 0
-2408 -111 2416 0
-2416 2408 0
-2416 111 0
-2409 2417 0
-125 2417 0
-2417 2409 125 0
-2410 2418 0
-2409 -125 2418 0
-2418 2410 2409 0
-2418 2410 125 0
-2411 2419 0
-2410 -125 2419 0
-2419 2411 2410 0
-2419 2411 125 0
-2412 2420 0
-2411 -125 2420 0
-2420 2412 2411 0
-2420 2412 125 0
-2413 2421 0
-2412 -125 2421 0
-2421 2413 2412 0
-2421 2413 125 0
-2414 2422 0
-2413 -125 2422 0
-2422 2414 2413 0
-2422 2414 125 0
-2415 2423 0
-2414 -125 2423 0
-2423 2415 2414 0
-2423 2415 125 0
-2416 2424 0
-2415 -125 2424 0
-2424 2416 2415 0
-2424 2416 125 0
-2417 2425 0
-139 2425 0
-2425 2417 139 0
-2418 2426 0
-2417 -139 2426 0
-2426 2418 2417 0
-2426 2418 139 0
-2419 2427 0
-2418 -139 2427 0
-2427 2419 2418 0
-2427 2419 139 0
-2420 2428 0
-2419 -139 2428 0
-2428 2420 2419 0
-2428 2420 139 0
-2421 2429 0
-2420 -139 2429 0
-2429 2421 2420 0
-2429 2421 139 0
-2422 2430 0
-2421 -139 2430 0
-2430 2422 2421 0
-2430 2422 139 0
-2423 2431 0
-2422 -139 2431 0
-2431 2423 2422 0
-2431 2423 139 0
-2424 2432 0
-2423 -139 2432 0
-2432 2424 2423 0
-2432 2424 139 0
-2425 2433 0
-153 2433 0
-2433 2425 153 0
-2426 2434 0
-2425 -153 2434 0
-2434 2426 2425 0
-2434 2426 153 0
-2427 2435 0
-2426 -153 2435 0
-2435 2427 2426 0
-2435 2427 153 0
-2428 2436 0
-2427 -153 2436 0
-2436 2428 2427 0
-2436 2428 153 0
-2429 2437 0
-2428 -153 2437 0
-2437 2429 2428 0
-2437 2429 153 0
-2430 2438 0
-2429 -153 2438 0
-2438 2430 2429 0
-2438 2430 153 0
-2431 2439 0
-2430 -153 2439 0
-2439 2431 2430 0
-2439 2431 153 0
-2432 2440 0
-2431 -153 2440 0
-2440 2432 2431 0
-2440 2432 153 0
-2433 2441 0
-167 2441 0
-2441 2433 167 0
-2434 2442 0
-2433 -167 2442 0
-2442 2434 2433 0
-2442 2434 167 0
-2435 2443 0
-2434 -167 2443 0
-2443 2435 2434 0
-2443 2435 167 0
-2436 2444 0
-2435 -167 2444 0
-2444 2436 2435 0
-2444 2436 167 0
-2437 2445 0
-2436 -167 2445 0
-2445 2437 2436 0
-2445 2437 167 0
-2438 2446 0
-2437 -167 2446 0
-2446 2438 2437 0
-2446 2438 167 0
-2439 2447 0
-2438 -167 2447 0
-2447 2439 2438 0
-2447 2439 167 0
-2440 2448 0
-2439 -167 2448 0
-2448 2440 2439 0
-2448 2440 167 0
-2441 2449 0
-181 2449 0
-2449 2441 181 0
-2442 2450 0
-2441 -181 2450 0
-2450 2442 2441 0
-2450 2442 181 0
-2443 2451 0
-2442 -181 2451 0
-2451 2443 2442 0
-2451 2443 181 0
-2444 2452 0
-2443 -181 2452 0
-2452 2444 2443 0
-2452 2444 181 0
-2445 2453 0
-2444 -181 2453 0
-2453 2445 2444 0
-2453 2445 181 0
-2446 2454 0
-2445 -181 2454 0
-2454 2446 2445 0
-2454 2446 181 0
-2447 2455 0
-2446 -181 2455 0
-2455 2447 2446 0
-2455 2447 181 0
-2448 2456 0
-2447 -181 2456 0
-2456 2448 2447 0
-2456 2448 181 0
-2449 2457 0
-195 2457 0
-2457 2449 195 0
-2450 2458 0
-2449 -195 2458 0
-2458 2450 2449 0
-2458 2450 195 0
-2451 2459 0
-2450 -195 2459 0
-2459 2451 2450 0
-2459 2451 195 0
-2452 2460 0
-2451 -195 2460 0
-2460 2452 2451 0
-2460 2452 195 0
-2453 2461 0
-2452 -195 2461 0
-2461 2453 2452 0
-2461 2453 195 0
-2454 2462 0
-2453 -195 2462 0
-2462 2454 2453 0
-2462 2454 195 0
-2455 2463 0
-2454 -195 2463 0
-2463 2455 2454 0
-2463 2455 195 0
-2456 2464 0
-2455 -195 2464 0
-2464 2456 2455 0
-2464 2456 195 0
2463 0
-2464 0
-14 2465 0
-2465 14 0
-2465 2466 0
-28 2466 0
-2466 2465 28 0
-2465 -28 2467 0
-2467 2465 0
-2467 28 0
-2466 2468 0
-42 2468 0
-2468 2466 42 0
-2467 2469 0
-2466 -42 2469 0
-2469 2467 2466 0
-2469 2467 42 0
-2467 -42 2470 0
-2470 2467 0
-2470 42 0
-2468 2471 0
-56 2471 0
-2471 2468 56 0
-2469 2472 0
-2468 -56 2472 0
-2472 2469 2468 0
-2472 2469 56 0
-2470 2473 0
-2469 -56 2473 0
-2473 2470 2469 0
-2473 2470 56 0
-2470 -56 2474 0
-2474 2470 0
-2474 56 0
-2471 2475 0
-70 2475 0
-2475 2471 70 0
-2472 2476 0
-2471 -70 2476 0
-2476 2472 2471 0
-2476 2472 70 0
-2473 2477 0
-2472 -70 2477 0
-2477 2473 2472 0
-2477 2473 70 0
-2474 2478 0
-2473 -70 2478 0
-2478 2474 2473 0
-2478 2474 70 0
-2474 -70 2479 0
-2479 2474 0
-2479 70 0
-2475 2480 0
-84 2480 0
-2480 2475 84 0
-2476 2481 0
-2475 -84 2481 0
-2481 2476 2475 0
-2481 2476 84 0
-2477 2482 0
-2476 -84 2482 0
-2482 2477 2476 0
-2482 2477 84 0
-2478 2483 0
-2477 -84 2483 0
-2483 2478 2477 0
-2483 2478 84 0
-2479 2484 0
-2478 -84 2484 0
-2484 2479 2478 0
-2484 2479 84 0
-2479 -84 2485 0
-2485 2479 0
-2485 84 0
-2480 2486 0
-98 2486 0
-2486 2480 98 0
-2481 2487 0
-2480 -98 2487 0
-2487 2481 2480 0
-2487 2481 98 0
-2482 2488 0
-2481 -98 2488 0
-2488 2482 2481 0
-2488 2482 98 0
-2483 2489 0
-2482 -98 2489 0
-2489 2483 2482 0
-2489 2483 98 0
-2484 2490 0
-2483 -98 2490 0
-2490 2484 2483 0
-2490 2484 98 0
-2485 2491 0
-2484 -98 2491 0
-2491 2485 2484 0
-2491 2485 98 0
-2485 -98 2492 0
-2492 2485 0
-2492 98 0
-2486 2493 0
-112 2493 0
-2493 2486 112 0
-2487 2494 0
-2486 -112 2494 0
-2494 2487 2486 0
-2494 2487 112 0
-2488 2495 0
-2487 -112 2495 0
-2495 2488 2487 0
-2495 2488 112 0
-2489 2496 0
-2488 -112 2496 0
-2496 2489 2488 0
-2496 2489 112 0
-2490 2497 0
-2489 -112 2497 0
-2497 2490 2489 0
-2497 2490 112 0
-2491 2498 0
-2490 -112 2498 0
-2498 2491 2490 0
-2498 2491 112 0
-2492 2499 0
-2491 -112 2499 0
-2499 2492 2491 0
-2499 2492 112 0
-2492 -112 2500 0
-2500 2492 0
-2500 112 0
-2493 2501 0
-126 2501 0
-2501 2493 126 0
-2494 2502 0
-2493 -126 2502 0
-2502 2494 2493 0
-2502 2494 126 0
-2495 2503 0
-2494 -126 2503 0
-2503 2495 2494 0
-2503 2495 126 0
-2496 2504 0
-2495 -126 2504 0
-2504 2496 2495 0
-2504 2496 126 0
-2497 2505 0
-2496 -126 2505 0
-2505 2497 2496 0
-2505 2497 126 0
-2498 2506 0
-2497 -126 2506 0
-2506 2498 2497 0
-2506 2498 126 0
-2499 2507 0
-2498 -126 2507 0
-2507 2499 2498 0
-2507 2499 126 0
-2500 2508 0
-2499 -126 2508 0
-2508 2500 2499 0
-2508 2500 126 0
-2501 2509 0
-140 2509 0
-2509 2501 140 0
-2502 2510 0
-2501 -140 2510 0
-2510 2502 2501 0
-2510 2502 140 0
-2503 2511 0
-2502 -140 2511 0
-2511 2503 2502 0
-2511 2503 140 0
-2504 2512 0
-2503 -140 2512 0
-2512 2504 2503 0
-2512 2504 140 0
-2505 2513 0
-2504 -140 2513 0
-2513 2505 2504 0
-2513 2505 140 0
-2506 2514 0
-2505 -140 2514 0
-2514 2506 2505 0
-2514 2506 140 0
-2507 2515 0
-2506 -140 2515 0
-2515 2507 2506 0
-2515 2507 140 0
-2508 2516 0
-2507 -140 2516 0
-2516 2508 2507 0
-2516 2508 140 0
-2509 2517 0
-154 2517 0
-2517 2509 154 0
-2510 2518 0
-2509 -154 2518 0
-2518 2510 2509 0
-2518 2510 154 0
-2511 2519 0
-2510 -154 2519 0
-2519 2511 2510 0
-2519 2511 154 0
-2512 2520 0
-2511 -154 2520 0
-2520 2512 2511 0
-2520 2512 154 0
-2513 2521 0
-2512 -154 2521 0
-2521 2513 2512 0
-2521 2513 154 0
-2514 2522 0
-2513 -154 2522 0
-2522 2514 2513 0
-2522 2514 154 0
-2515 2523 0
-2514 -154 2523 0
-2523 2515 2514 0
-2523 2515 154 0
-2516 2524 0
-2515 -154 2524 0
-2524 2516 2515 0
-2524 2516 154 0
-2517 2525 0
-168 2525 0
-2525 2517 168 0
-2518 2526 0
-2517 -168 2526 0
-2526 2518 2517 0
-2526 2518 168 0
-2519 2527 0
-2518 -168 2527 0
-2527 2519 2518 0
-2527 2519 168 0
-2520 2528 0
-2519 -168 2528 0
-2528 2520 2519 0
-2528 2520 168 0
-2521 2529 0
-2520 -168 2529 0
-2529 2521 2520 0
-2529 2521 168 0
-2522 2530 0
-2521 -168 2530 0
-2530 2522 2521 0
-2530 2522 168 0
-2523 2531 0
-2522 -168 2531 0
-2531 2523 2522 0
-2531 2523 168 0
-2524 2532 0
-2523 -168 2532 0
-2532 2524 2523 0
-2532 2524 168 0
-2525 2533 0
-182 2533 0
-2533 2525 182 0
-2526 2534 0
-2525 -182 2534 0
-2534 2526 2525 0
-2534 2526 182 0
-2527 2535 0
-2526 -182 2535 0
-2535 2527 2526 0
-2535 2527 182 0
-2528 2536 0
-2527 -182 2536 0
-2536 2528 2527 0
-2536 2528 182 0
-2529 2537 0
-2528 -182 2537 0
-2537 2529 2528 0
-2537 2529 182 0
-2530 2538 0
-2529 -182 2538 0
-2538 2530 2529 0
-2538 2530 182 0
-2531 2539 0
-2530 -182 2539 0
-2539 2531 2530 0
-2539 2531 182 0
-2532 2540 0
-2531 -182 2540 0
-2540 2532 2531 0
-2540 2532 182 0
-2533 2541 0
-196 2541 0
-2541 2533 196 0
-2534 2542 0
-2533 -196 2542 0
-2542 2534 2533 0
-2542 2534 196 0
-2535 2543 0
-2534 -196 2543 0
-2543 2535 2534 0
-2543 2535 196 0
-2536 2544 0
-2535 -196 2544 0
-2544 2536 2535 0
-2544 2536 196 0
-2537 2545 0
-2536 -196 2545 0
-2545 2537 2536 0
-2545 2537 196 0
-2538 2546 0
-2537 -196 2546 0
-2546 2538 2537 0
-2546 2538 196 0
-2539 2547 0
-2538 -196 2547 0
-2547 2539 2538 0
-2547 2539 196 0
-2540 2548 0
-2539 -196 2548 0
-2548 2540 2539 0
-2548 2540 196 0
2547 0
-2548 0
-2549 1 0
-2549 15 0
2549 -1 -15 0
-2550 2 0
-2550 16 0
2550 -2 -16 0
-2551 3 0
-2551 17 0
2551 -3 -17 0
-2552 4 0
-2552 18 0
2552 -4 -18 0
-2553 5 0
-2553 19 0
2553 -5 -19 0
-2554 6 0
-2554 20 0
2554 -6 -20 0
-2555 7 0
-2555 21 0
2555 -7 -21 0
-2556 8 0
-2556 22 0
2556 -8 -22 0
-2557 9 0
-2557 23 0
2557 -9 -23 0
-2558 10 0
-2558 24 0
2558 -10 -24 0
-2559 11 0
-2559 25 0
2559 -11 -25 0
-2560 12 0
-2560 26 0
2560 -12 -26 0
-2561 13 0
-2561 27 0
2561 -13 -27 0
-2562 14 0
-2562 28 0
2562 -14 -28 0
-2549 2563 0
-2563 2549 0
-2563 2564 0
-2550 2564 0
-2564 2563 2550 0
-2563 -2550 2565 0
-2565 2563 0
-2565 2550 0
-2564 2566 0
-2551 2566 0
-2566 2564 2551 0
-2565 2567 0
-2564 -2551 2567 0
-2567 2565 2564 0
-2567 2565 2551 0
-2565 -2551 2568 0
-2568 2565 0
-2568 2551 0
-2566 2569 0
-2552 2569 0
-2569 2566 2552 0
-2567 2570 0
-2566 -2552 2570 0
-2570 2567 2566 0
-2570 2567 2552 0
-2568 2571 0
-2567 -2552 2571 0
-2571 2568 2567 0
-2571 2568 2552 0
-2569 2572 0
-2553 2572 0
-2572 2569 2553 0
-2570 2573 0
-2569 -2553 2573 0
-2573 2570 2569 0
-2573 2570 2553 0
-2571 2574 0
-2570 -2553 2574 0
-2574 2571 2570 0
-2574 2571 2553 0
-2572 2575 0
-2554 2575 0
-2575 2572 2554 0
-2573 2576 0
-2572 -2554 2576 0
-2576 2573 2572 0
-2576 2573 2554 0
-2574 2577 0
-2573 -2554 2577 0
-2577 2574 2573 0
-2577 2574 2554 0
-2575 2578 0
-2555 2578 0
-2578 2575 2555 0
-2576 2579 0
-2575 -2555 2579 0
-2579 2576 2575 0
-2579 2576 2555 0
-2577 2580 0
-2576 -2555 2580 0
-2580 2577 2576 0
-2580 2577 2555 0
-2578 2581 0
-2556 2581 0
-2581 2578 2556 0
-2579 2582 0
-2578 -2556 2582 0
-2582 2579 2578 0
-2582 2579 2556 0
-2580 2583 0
-2579 -2556 2583 0
-2583 2580 2579 0
-2583 2580 2556 0
-2581 2584 0
-2557 2584 0
-2584 2581 2557 0
-2582 2585 0
-2581 -2557 2585 0
-2585 2582 2581 0
-2585 2582 2557 0
-2583 2586 0
-2582 -2557 2586 0
-2586 2583 2582 0
-2586 2583 2557 0
-2584 2587 0
-2558 2587 0
-2587 2584 2558 0
-2585 2588 0
-2584 -2558 2588 0
-2588 2585 2584 0
-2588 2585 2558 0
-2586 2589 0
-2585 -2558 2589 0
-2589 2586 2585 0
-2589 2586 2558 0
-2587 2590 0
-2559 2590 0
-2590 2587 2559 0
-2588 2591 0
-2587 -2559 2591 0
-2591 2588 2587 0
-2591 2588 2559 0
-2589 2592 0
-2588 -2559 2592 0
-2592 2589 2588 0
-2592 2589 2559 0
-2590 2593 0
-2560 2593 0
-2593 2590 2560 0
-2591 2594 0
-2590 -2560 2594 0
-2594 2591 2590 0
-2594 2591 2560 0
-2592 2595 0
-2591 -2560 2595 0
-2595 2592 2591 0
-2595 2592 2560 0
-2593 2596 0
-2561 2596 0
-2596 2593 2561 0
-2594 2597 0
-2593 -2561 2597 0
-2597 2594 2593 0
-2597 2594 2561 0
-2595 2598 0
-2594 -2561 2598 0
-2598 2595 2594 0
-2598 2595 2561 0
-2596 2599 0
-2562 2599 0
-2599 2596 2562 0
-2597 2600 0
-2596 -2562 2600 0
-2600 2597 2596 0
-2600 2597 2562 0
-2598 2601 0
-2597 -2562 2601 0
-2601 2598 2597 0
-2601 2598 2562 0
2601 0
-2602 1 0
-2602 29 0
2602 -1 -29 0
-2603 2 0
-2603 30 0
2603 -2 -30 0
-2604 3 0
-2604 31 0
2604 -3 -31 0
-2605 4 0
-2605 32 0
2605 -4 -32 0
-2606 5 0
-2606 33 0
2606 -5 -33 0
-2607 6 0
-2607 34 0
2607 -6 -34 0
-2608 7 0
-2608 35 0
2608 -7 -35 0
-2609 8 0
-2609 36 0
2609 -8 -36 0
-2610 9 0
-2610 37 0
2610 -9 -37 0
-2611 10 0
-2611 38 0
2611 -10 -38 0
-2612 11 0
-2612 39 0
2612 -11 -39 0
-2613 12 0
-2613 40 0
2613 -12 -40 0
-2614 13 0
-2614 41 0
2614 -13 -41 0
-2615 14 0
-2615 42 0
2615 -14 -42 0
-2602 2616 0
-2616 2602 0
-2616 2617 0
-2603 2617 0
-2617 2616 2603 0
-2616 -2603 2618 0
-2618 2616 0
-2618 2603 0
-2617 2619 0
-2604 2619 0
-2619 2617 2604 0
-2618 2620 0
-2617 -2604 2620 0
-2620 2618 2617 0
-2620 2618 2604 0
-2618 -2604 2621 0
-2621 2618 0
-2621 2604 0
-2619 2622 0
-2605 2622 0
-2622 2619 2605 0
-2620 2623 0
-2619 -2605 2623 0
-2623 2620 2619 0
-2623 2620 2605 0
-2621 2624 0
-2620 -2605 2624 0
-2624 2621 2620 0
-2624 2621 2605 0
-2622 2625 0
-2606 2625 0
-2625 2622 2606 0
-2623 2626 0
-2622 -2606 2626 0
-2626 2623 2622 0
-2626 2623 2606 0
-2624 2627 0
-2623 -2606 2627 0
-2627 2624 2623 0
-2627 2624 2606 0
-2625 2628 0
-2607 2628 0
-2628 2625 2607 0
-2626 2629 0
-2625 -2607 2629 0
-2629 2626 2625 0
-2629 2626 2607 0
-2627 2630 0
-2626 -2607 2630 0
-2630 2627 2626 0
-2630 2627 2607 0
-2628 2631 0
-2608 2631 0
-2631 2628 2608 0
-2629 2632 0
-2628 -2608 2632 0
-2632 2629 2628 0
-2632 2629 2608 0
-2630 2633 0
-2629 -2608 2633 0
-2633 2630 2629 0
-2633 2630 2608 0
-2631 2634 0
-2609 2634 0
-2634 2631 2609 0
-2632 2635 0
-2631 -2609 2635 0
-2635 2632 2631 0
-2635 2632 2609 0
-2633 2636 0
-2632 -2609 2636 0
-2636 2633 2632 0
-2636 2633 2609 0
-2634 2637 0
-2610 2637 0
-2637 2634 2610 0
-2635 2638 0
-2634 -2610 2638 0
-2638 2635 2634 0
-2638 2635 2610 0
-2636 2639 0
-2635 -2610 2639 0
-2639 2636 2635 0
-2639 2636 2610 0
-2637 2640 0
-2611 2640 0
-2640 2637 2611 0
-2638 2641 0
-2637 -2611 2641 0
-2641 2638 2637 0
-2641 2638 2611 0
-2639 2642 0
-2638 -2611 2642 0
-2642 2639 2638 0
-2642 2639 2611 0
-2640 2643 0
-2612 2643 0
-2643 2640 2612 0
-2641 2644 0
-2640 -2612 2644 0
-2644 2641 2640 0
-2644 2641 2612 0
-2642 2645 0
-2641 -2612 2645 0
-2645 2642 2641 0
-2645 2642 2612 0
-2643 2646 0
-2613 2646 0
-2646 2643 2613 0
-2644 2647 0
-2643 -2613 2647 0
-2647 2644 2643 0
-2647 2644 2613 0
-2645 2648 0
-2644 -2613 2648 0
-2648 2645 2644 0
-2648 2645 2613 0
-2646 2649 0
-2614 2649 0
-2649 2646 2614 0
-2647 2650 0
-2646 -2614 2650 0
-2650 2647 2646 0
-2650 2647 2614 0
-2648 2651 0
-2647 -2614 2651 0
-2651 2648 2647 0
-2651 2648 2614 0
-2649 2652 0
-2615 2652 0
-2652 2649 2615 0
-2650 2653 0
-2649 -2615 2653 0
-2653 2650 2649 0
-2653 2650 2615 0
-2651 2654 0
-2650 -2615 2654 0
-2654 2651 2650 0
-2654 2651 2615 0
2654 0
-2655 1 0
-2655 43 0
2655 -1 -43 0
-2656 2 0
-2656 44 0
2656 -2 -44 0
-2657 3 0
-2657 45 0
2657 -3 -45 0
-2658 4 0
-2658 46 0
2658 -4 -46 0
-2659 5 0
-2659 47 0
2659 -5 -47 0
-2660 6 0
-2660 48 0
2660 -6 -48 0
-2661 7 0
-2661 49 0
2661 -7 -49 0
-2662 8 0
-2662 50 0
2662 -8 -50 0
-2663 9 0
-2663 51 0
2663 -9 -51 0
-2664 10 0
-2664 52 0
2664 -10 -52 0
-2665 11 0
-2665 53 0
2665 -11 -53 0
-2666 12 0
-2666 54 0
2666 -12 -54 0
-2667 13 0
-2667 55 0
2667 -13 -55 0
-2668 14 0
-2668 56 0
2668 -14 -56 0
-2655 2669 0
-2669 2655 0
-2669 2670 0
-2656 2670 0
-2670 2669 2656 0
-2669 -2656 2671 0
-2671 2669 0
-2671 2656 0
-2670 2672 0
-2657 2672 0
-2672 2670 2657 0
-2671 2673 0
-2670 -2657 2673 0
-2673 2671 2670 0
-2673 2671 2657 0
-2671 -2657 2674 0
-2674 2671 0
-2674 2657 0
-2672 2675 0
-2658 2675 0
-2675 2672 2658 0
-2673 2676 0
-2672 -2658 2676 0
-2676 2673 2672 0
-2676 2673 2658 0
-2674 2677 0
-2673 -2658 2677 0
-2677 2674 2673 0
-2677 2674 2658 0
-2675 2678 0
-2659 2678 0
-2678 2675 2659 0
-2676 2679 0
-2675 -2659 2679 0
-2679 2676 2675 0
-2679 2676 2659 0
-2677 2680 0
-2676 -2659 2680 0
-2680 2677 2676 0
-2680 2677 2659 0
-2678 2681 0
-2660 2681 0
-2681 2678 2660 0
-2679 2682 0
-2678 -2660 2682 0
-2682 2679 2678 0
-2682 2679 2660 0
-2680 2683 0
-2679 -2660 2683 0
-2683 2680 2679 0
-2683 2680 2660 0
-2681 2684 0
-2661 2684 0
-2684 2681 2661 0
-2682 2685 0
-2681 -2661 2685 0
-2685 2682 2681 0
-2685 2682 2661 0
-2683 2686 0
-2682 -2661 2686 0
-2686 2683 2682 0
-2686 2683 2661 0
-2684 2687 0
-2662 2687 0
-2687 2684 2662 0
-2685 2688 0
-2684 -2662 2688 0
-2688 2685 2684 0
-2688 2685 2662 0
-2686 2689 0
-2685 -2662 2689 0
-2689 2686 2685 0
-2689 2686 2662 0
-2687 2690 0
-2663 2690 0
-2690 2687 2663 0
-2688 2691 0
-2687 -2663 2691 0
-2691 2688 2687 0
-2691 2688 2663 0
-2689 2692 0
-2688 -2663 2692 0
-2692 2689 2688 0
-2692 2689 2663 0
-2690 2693 0
-2664 2693 0
-2693 2690 2664 0
-2691 2694 0
-2690 -2664 2694 0
-2694 2691 2690 0
-2694 2691 2664 0
-2692 2695 0
-2691 -2664 2695 0
-2695 2692 2691 0
-2695 2692 2664 0
-2693 2696 0
-2665 2696 0
-2696 2693 2665 0
-2694 2697 0
-2693 -2665 2697 0
-2697 2694 2693 0
-2697 2694 2665 0
-2695 2698 0
-2694 -2665 2698 0
-2698 2695 2694 0
-2698 2695 2665 0
-2696 2699 0
-2666 2699 0
-2699 2696 2666 0
-2697 2700 0
-2696 -2666 2700 0
-2700 2697 2696 0
-2700 2697 2666 0
-2698 2701 0
-2697 -2666 2701 0
-2701 2698 2697 0
-2701 2698 2666 0
-2699 2702 0
-2667 2702 0
-2702 2699 2667 0
-2700 2703 0
-2699 -2667 2703 0
-2703 2700 2699 0
-2703 2700 2667 0
-2701 2704 0
-2700 -2667 2704 0
-2704 2701 2700 0
-2704 2701 2667 0
-2702 2705 0
-2668 2705 0
-2705 2702 2668 0
-2703 2706 0
-2702 -2668 2706 0
-2706 2703 2702 0
-2706 2703 2668 0
-2704 2707 0
-2703 -2668 2707 0
-2707 2704 2703 0
-2707 2704 2668 0
2707 0
-2708 1 0
-2708 57 0
2708 -1 -57 0
-2709 2 0
-2709 58 0
2709 -2 -58 0
-2710 3 0
-2710 59 0
2710 -3 -59 0
-2711 4 0
-2711 60 0
2711 -4 -60 0
-2712 5 0
-2712 61 0
2712 -5 -61 0
-2713 6 0
-2713 62 0
2713 -6 -62 0
-2714 7 0
-2714 63 0
2714 -7 -63 0
-2715 8 0
-2715 64 0
2715 -8 -64 0
-2716 9 0
-2716 65 0
2716 -9 -65 0
-2717 10 0
-2717 66 0
2717 -10 -66 0
-2718 11 0
-2718 67 0
2718 -11 -67 0
-2719 12 0
-2719 68 0
2719 -12 -68 0
-2720 13 0
-2720 69 0
2720 -13 -69 0
-2721 14 0
-2721 70 0
2721 -14 -70 0
-2708 2722 0
-2722 2708 0
-2722 2723 0
-2709 2723 0
-2723 2722 2709 0
-2722 -2709 2724 0
-2724 2722 0
-2724 2709 0
-2723 2725 0
-2710 2725 0
-2725 2723 2710 0
-2724 2726 0
-2723 -2710 2726 0
-2726 2724 2723 0
-2726 2724 2710 0
-2724 -2710 2727 0
-2727 2724 0
-2727 2710 0
-2725 2728 0
-2711 2728 0
-2728 2725 2711 0
-2726 2729 0
-2725 -2711 2729 0
-2729 2726 2725 0
-2729 2726 2711 0
-2727 2730 0
-2726 -2711 2730 0
-2730 2727 2726 0
-2730 2727 2711 0
-2728 2731 0
-2712 2731 0
-2731 2728 2712 0
-2729 2732 0
-2728 -2712 2732 0
-2732 2729 2728 0
-2732 2729 2712 0
-2730 2733 0
-2729 -2712 2733 0
-2733 2730 2729 0
-2733 2730 2712 0
-2731 2734 0
-2713 2734 0
-2734 2731 2713 0
-2732 2735 0
-2731 -2713 2735 0
-2735 2732 2731 0
-2735 2732 2713 0
-2733 2736 0
-2732 -2713 2736 0
-2736 2733 2732 0
-2736 2733 2713 0
-2734 2737 0
-2714 2737 0
-2737 2734 2714 0
-2735 2738 0
-2734 -2714 2738 0
-2738 2735 2734 0
-2738 2735 2714 0
-2736 2739 0
-2735 -2714 2739 0
-2739 2736 2735 0
-2739 2736 2714 0
-2737 2740 0
-2715 2740 0
-2740 2737 2715 0
-2738 2741 0
-2737 -2715 2741 0
-2741 2738 2737 0
-2741 2738 2715 0
-2739 2742 0
-2738 -2715 2742 0
-2742 2739 2738 0
-2742 2739 2715 0
-2740 2743 0
-2716 2743 0
-2743 2740 2716 0
-2741 2744 0
-2740 -2716 2744 0
-2744 2741 2740 0
-2744 2741 2716 0
-2742 2745 0
-2741 -2716 2745 0
-2745 2742 2741 0
-2745 2742 2716 0
-2743 2746 0
-2717 2746 0
-2746 2743 2717 0
-2744 2747 0
-2743 -2717 2747 0
-2747 2744 2743 0
-2747 2744 2717 0
-2745 2748 0
-2744 -2717 2748 0
-2748 2745 2744 0
-2748 2745 2717 0
-2746 2749 0
-2718 2749 0
-2749 2746 2718 0
-2747 2750 0
-2746 -2718 2750 0
-2750 2747 2746 0
-2750 2747 2718 0
-2748 2751 0
-2747 -2718 2751 0
-2751 2748 2747 0
-2751 2748 2718 0
-2749 2752 0
-2719 2752 0
-2752 2749 2719 0
-2750 2753 0
-2749 -2719 2753 0
-2753 2750 2749 0
-2753 2750 2719 0
-2751 2754 0
-2750 -2719 2754 0
-2754 2751 2750 0
-2754 2751 2719 0
-2752 2755 0
-2720 2755 0
-2755 2752 2720 0
-2753 2756 0
-2752 -2720 2756 0
-2756 2753 2752 0
-2756 2753 2720 0
-2754 2757 0
-2753 -2720 2757 0
-2757 2754 2753 0
-2757 2754 2720 0
-2755 2758 0
-2721 2758 0
-2758 2755 2721 0
-2756 2759 0
-2755 -2721 2759 0
-2759 2756 2755 0
-2759 2756 2721 0
-2757 2760 0
-2756 -2721 2760 0
-2760 2757 2756 0
-2760 2757 2721 0
2760 0
-2761 1 0
-2761 71 0
2761 -1 -71 0
-2762 2 0
-2762 72 0
2762 -2 -72 0
-2763 3 0
-2763 73 0
2763 -3 -73 0
-2764 4 0
-2764 74 0
2764 -4 -74 0
-2765 5 0
-2765 75 0
2765 -5 -75 0
-2766 6 0
-2766 76 0
2766 -6 -76 0
-2767 7 0
-2767 77 0
2767 -7 -77 0
-2768 8 0
-2768 78 0
2768 -8 -78 0
-2769 9 0
-2769 79 0
2769 -9 -79 0
-2770 10 0
-2770 80 0
2770 -10 -80 0
-2771 11 0
-2771 81 0
2771 -11 -81 0
-2772 12 0
-2772 82 0
2772 -12 -82 0
-2773 13 0
-2773 83 0
2773 -13 -83 0
-2774 14 0
-2774 84 0
2774 -14 -84 0
-2761 2775 0
-2775 2761 0
-2775 2776 0
-2762 2776 0
-2776 2775 2762 0
-2775 -2762 2777 0
-2777 2775 0
-2777 2762 0
-2776 2778 0
-2763 2778 0
-2778 2776 2763 0
-2777 2779 0
-2776 -2763 2779 0
-2779 2777 2776 0
-2779 2777 2763 0
-2777 -2763 2780 0
-2780 2777 0
-2780 2763 0
-2778 2781 0
-2764 2781 0
-2781 2778 2764 0
-2779 2782 0
-2778 -2764 2782 0
-2782 2779 2778 0
-2782 2779 2764 0
-2780 2783 0
-2779 -2764 2783 0
-2783 2780 2779 0
-2783 2780 2764 0
-2781 2784 0
-2765 2784 0
-2784 2781 2765 0
-2782 2785 0
-2781 -2765 2785 0
-2785 2782 2781 0
-2785 2782 2765 0
-2783 2786 0
-2782 -2765 2786 0
-2786 2783 2782 0
-2786 2783 2765 0
-2784 2787 0
-2766 2787 0
-2787 2784 2766 0
-2785 2788 0
-2784 -2766 2788 0
-2788 2785 2784 0
-2788 2785 2766 0
-2786 2789 0
-2785 -2766 2789 0
-2789 2786 2785 0
-2789 2786 2766 0
-2787 2790 0
-2767 2790 0
-2790 2787 2767 0
-2788 2791 0
-2787 -2767 2791 0
-2791 2788 2787 0
-2791 2788 2767 0
-2789 2792 0
-2788 -2767 2792 0
-2792 2789 2788 0
-2792 2789 2767 0
-2790 2793 0
-2768 2793 0
-2793 2790 2768 0
-2791 2794 0
-2790 -2768 2794 0
-2794 2791 2790 0
-2794 2791 2768 0
-2792 2795 0
-2791 -2768 2795 0
-2795 2792 2791 0
-2795 2792 2768 0
-2793 2796 0
-2769 2796 0
-2796 2793 2769 0
-2794 2797 0
-2793 -2769 2797 0
-2797 2794 2793 0
-2797 2794 2769 0
-2795 2798 0
-2794 -2769 2798 0
-2798 2795 2794 0
-2798 2795 2769 0
-2796 2799 0
-2770 2799 0
-2799 2796 2770 0
-2797 2800 0
-2796 -2770 2800 0
-2800 2797 2796 0
-2800 2797 2770 0
-2798 2801 0
-2797 -2770 2801 0
-2801 2798 2797 0
-2801 2798 2770 0
-2799 2802 0
-2771 2802 0
-2802 2799 2771 0
-2800 2803 0
-2799 -2771 2803 0
-2803 2800 2799 0
-2803 2800 2771 0
-2801 2804 0
-2800 -2771 2804 0
-2804 2801 2800 0
-2804 2801 2771 0
-2802 2805 0
-2772 2805 0
-2805 2802 2772 0
-2803 2806 0
-2802 -2772 2806 0
-2806 2803 2802 0
-2806 2803 2772 0
-2804 2807 0
-2803 -2772 2807 0
-2807 2804 2803 0
-2807 2804 2772 0
-2805 2808 0
-2773 2808 0
-2808 2805 2773 0
-2806 2809 0
-2805 -2773 2809 0
-2809 2806 2805 0
-2809 2806 2773 0
-2807 2810 0
-2806 -2773 2810 0
-2810 2807 2806 0
-2810 2807 2773 0
-2808 2811 0
-2774 2811 0
-2811 2808 2774 0
-2809 2812 0
-2808 -2774 2812 0
-2812 2809 2808 0
-2812 2809 2774 0
-2810 2813 0
-2809 -2774 2813 0
-2813 2810 2809 0
-2813 2810 2774 0
2813 0
-2814 1 0
-2814 85 0
2814 -1 -85 0
-2815 2 0
-2815 86 0
2815 -2 -86 0
-2816 3 0
-2816 87 0
2816 -3 -87 0
-2817 4 0
-2817 88 0
2817 -4 -88 0
-2818 5 0
-2818 89 0
2818 -5 -89 0
-2819 6 0
-2819 90 0
2819 -6 -90 0
-2820 7 0
-2820 91 0
2820 -7 -91 0
-2821 8 0
-2821 92 0
2821 -8 -92 0
-2822 9 0
-2822 93 0
2822 -9 -93 0
-2823 10 0
-2823 94 0
2823 -10 -94 0
-2824 11 0
-2824 95 0
2824 -11 -95 0
-2825 12 0
-2825 96 0
2825 -12 -96 0
-2826 13 0
-2826 97 0
2826 -13 -97 0
-2827 14 0
-2827 98 0
2827 -14 -98 0
-2814 2828 0
-2828 2814 0
-2828 2829 0
-2815 2829 0
-2829 2828 2815 0
-2828 -2815 2830 0
-2830 2828 0
-2830 2815 0
-2829 2831 0
-2816 2831 0
-2831 2829 2816 0
-2830 2832 0
-2829 -2816 2832 0
-2832 2830 2829 0
-2832 2830 2816 0
-2830 -2816 2833 0
-2833 2830 0
-2833 2816 0
-2831 2834 0
-2817 2834 0
-2834 2831 2817 0
-2832 2835 0
-2831 -2817 2835 0
-2835 2832 2831 0
-2835 2832 2817 0
-2833 2836 0
-2832 -2817 2836 0
-2836 2833 2832 0
-2836 2833 2817 0
-2834 2837 0
-2818 2837 0
-2837 2834 2818 0
-2835 2838 0
-2834 -2818 2838 0
-2838 2835 2834 0
-2838 2835 2818 0
-2836 2839 0
-2835 -2818 2839 0
-2839 2836 2835 0
-2839 2836 2818 0
-2837 2840 0
-2819 2840 0
-2840 2837 2819 0
-2838 2841 0
-2837 -2819 2841 0
-2841 2838 2837 0
-2841 2838 2819 0
-2839 2842 0
-2838 -2819 2842 0
-2842 2839 2838 0
-2842 2839 2819 0
-2840 2843 0
-2820 2843 0
-2843 2840 2820 0
-2841 2844 0
-2840 -2820 2844 0
-2844 2841 2840 0
-2844 2841 2820 0
-2842 2845 0
-2841 -2820 2845 0
-2845 2842 2841 0
-2845 2842 2820 0
-2843 2846 0
-2821 2846 0
-2846 2843 2821 0
-2844 2847 0
-2843 -2821 2847 0
-2847 2844 2843 0
-2847 2844 2821 0
-2845 2848 0
-2844 -2821 2848 0
-2848 2845 2844 0
-2848 2845 2821 0
-2846 2849 0
-2822 2849 0
-2849 2846 2822 0
-2847 2850 0
-2846 -2822 2850 0
-2850 2847 2846 0
-2850 2847 2822 0
-2848 2851 0
-2847 -2822 2851 0
-2851 2848 2847 0
-2851 2848 2822 0
-2849 2852 0
-2823 2852 0
-2852 2849 2823 0
-2850 2853 0
-2849 -2823 2853 0
-2853 2850 2849 0
-2853 2850 2823 0
-2851 2854 0
-2850 -2823 2854 0
-2854 2851 2850 0
-2854 2851 2823 0
-2852 2855 0
-2824 2855 0
-2855 2852 2824 0
-2853 2856 0
-2852 -2824 2856 0
-2856 2853 2852 0
-2856 2853 2824 0
-2854 2857 0
-2853 -2824 2857 0
-2857 2854 2853 0
-2857 2854 2824 0
-2855 2858 0
-2825 2858 0
-2858 2855 2825 0
-2856 2859 0
-2855 -2825 2859 0
-2859 2856 2855 0
-2859 2856 2825 0
-2857 2860 0
-2856 -2825 2860 0
-2860 2857 2856 0
-2860 2857 2825 0
-2858 2861 0
-2826 2861 0
-2861 2858 2826 0
-2859 2862 0
-2858 -2826 2862 0
-2862 2859 2858 0
-2862 2859 2826 0
-2860 2863 0
-2859 -2826 2863 0
-2863 2860 2859 0
-2863 2860 2826 0
-2861 2864 0
-2827 2864 0
-2864 2861 2827 0
-2862 2865 0
-2861 -2827 2865 0
-2865 2862 2861 0
-2865 2862 2827 0
-2863 2866 0
-2862 -2827 2866 0
-2866 2863 2862 0
-2866 2863 2827 0
2866 0
-2867 1 0
-2867 99 0
2867 -1 -99 0
-2868 2 0
-2868 100 0
2868 -2 -100 0
-2869 3 0
-2869 101 0
2869 -3 -101 0
-2870 4 0
-2870 102 0
2870 -4 -102 0
-2871 5 0
-2871 103 0
2871 -5 -103 0
-2872 6 0
-2872 104 0
2872 -6 -104 0
-2873 7 0
-2873 105 0
2873 -7 -105 0
-2874 8 0
-2874 106 0
2874 -8 -106 0
-2875 9 0
-2875 107 0
2875 -9 -107 0
-2876 10 0
-2876 108 0
2876 -10 -108 0
-2877 11 0
-2877 109 0
2877 -11 -109 0
-2878 12 0
-2878 110 0
2878 -12 -110 0
-2879 13 0
-2879 111 0
2879 -13 -111 0
-2880 14 0
-2880 112 0
2880 -14 -112 0
-2867 2881 0
-2881 2867 0
-2881 2882 0
-2868 2882 0
-2882 2881 2868 0
-2881 -2868 2883 0
-2883 2881 0
-2883 2868 0
-2882 2884 0
-2869 2884 0
-2884 2882 2869 0
-2883 2885 0
-2882 -2869 2885 0
-2885 2883 2882 0
-2885 2883 2869 0
-2883 -2869 2886 0
-2886 2883 0
-2886 2869 0
-2884 2887 0
-2870 2887 0
-2887 2884 2870 0
-2885 2888 0
-2884 -2870 2888 0
-2888 2885 2884 0
-2888 2885 2870 0
-2886 2889 0
-2885 -2870 2889 0
-2889 2886 2885 0
-2889 2886 2870 0
-2887 2890 0
-2871 2890 0
-2890 2887 2871 0
-2888 2891 0
-2887 -2871 2891 0
-2891 2888 2887 0
-2891 2888 2871 0
-2889 2892 0
-2888 -2871 2892 0
-2892 2889 2888 0
-2892 2889 2871 0
-2890 2893 0
-2872 2893 0
-2893 2890 2872 0
-2891 2894 0
-2890 -2872 2894 0
-2894 2891 2890 0
-2894 2891 2872 0
-2892 2895 0
-2891 -2872 2895 0
-2895 2892 2891 0
-2895 2892 2872 0
-2893 2896 0
-2873 2896 0
-2896 2893 2873 0
-2894 2897 0
-2893 -2873 2897 0
-2897 2894 2893 0
-2897 2894 2873 0
-2895 2898 0
-2894 -2873 2898 0
-2898 2895 2894 0
-2898 2895 2873 0
-2896 2899 0
-2874 2899 0
-2899 2896 2874 0
-2897 2900 0
-2896 -2874 2900 0
-2900 2897 2896 0
-2900 2897 2874 0
-2898 2901 0
-2897 -2874 2901 0
-2901 2898 2897 0
-2901 2898 2874 0
-2899 2902 0
-2875 2902 0
-2902 2899 2875 0
-2900 2903 0
-2899 -2875 2903 0
-2903 2900 2899 0
-2903 2900 2875 0
-2901 2904 0
-2900 -2875 2904 0
-2904 2901 2900 0
-2904 2901 2875 0
-2902 2905 0
-2876 2905 0
-2905 2902 2876 0
-2903 2906 0
-2902 -2876 2906 0
-2906 2903 2902 0
-2906 2903 2876 0
-2904 2907 0
-2903 -2876 2907 0
-2907 2904 2903 0
-2907 2904 2876 0
-2905 2908 0
-2877 2908 0
-2908 2905 2877 0
-2906 2909 0
-2905 -2877 2909 0
-2909 2906 2905 0
-2909 2906 2877 0
-2907 2910 0
-2906 -2877 2910 0
-2910 2907 2906 0
-2910 2907 2877 0
-2908 2911 0
-2878 2911 0
-2911 2908 2878 0
-2909 2912 0
-2908 -2878 2912 0
-2912 2909 2908 0
-2912 2909 2878 0
-2910 2913 0
-2909 -2878 2913 0
-2913 2910 2909 0
-2913 2910 2878 0
-2911 2914 0
-2879 2914 0
-2914 2911 2879 0
-2912 2915 0
-2911 -2879 2915 0
-2915 2912 2911 0
-2915 2912 2879 0
-2913 2916 0
-2912 -2879 2916 0
-2916 2913 2912 0
-2916 2913 2879 0
-2914 2917 0
-2880 2917 0
-2917 2914 2880 0
-2915 2918 0
-2914 -2880 2918 0
-2918 2915 2914 0
-2918 2915 2880 0
-2916 2919 0
-2915 -2880 2919 0
-2919 2916 2915 0
-2919 2916 2880 0
2919 0
-2920 1 0
-2920 113 0
2920 -1 -113 0
-2921 2 0
-2921 114 0
2921 -2 -114 0
-2922 3 0
-2922 115 0
2922 -3 -115 0
-2923 4 0
-2923 116 0
2923 -4 -116 0
-2924 5 0
-2924 117 0
2924 -5 -117 0
-2925 6 0
-2925 118 0
2925 -6 -118 0
-2926 7 0
-2926 119 0
2926 -7 -119 0
-2927 8 0
-2927 120 0
2927 -8 -120 0
-2928 9 0
-2928 121 0
2928 -9 -121 0
-2929 10 0
-2929 122 0
2929 -10 -122 0
-2930 11 0
-2930 123 0
2930 -11 -123 0
-2931 12 0
-2931 124 0
2931 -12 -124 0
-2932 13 0
-2932 125 0
2932 -13 -125 0
-2933 14 0
-2933 126 0
2933 -14 -126 0
-2920 2934 0
-2934 2920 0
-2934 2935 0
-2921 2935 0
-2935 2934 2921 0
-2934 -2921 2936 0
-2936 2934 0
-2936 2921 0
-2935 2937 0
-2922 2937 0
-2937 2935 2922 0
-2936 2938 0
-2935 -2922 2938 0
-2938 2936 2935 0
-2938 2936 2922 0
-2936 -2922 2939 0
-2939 2936 0
-2939 2922 0
-2937 2940 0
-2923 2940 0
-2940 2937 2923 0
-2938 2941 0
-2937 -2923 2941 0
-2941 2938 2937 0
-2941 2938 2923 0
-2939 2942 0
-2938 -2923 2942 0
-2942 2939 2938 0
-2942 2939 2923 0
-2940 2943 0
-2924 2943 0
-2943 2940 2924 0
-2941 2944 0
-2940 -2924 2944 0
-2944 2941 2940 0
-2944 2941 2924 0
-2942 2945 0
-2941 -2924 2945 0
-2945 2942 2941 0
-2945 2942 2924 0
-2943 2946 0
-2925 2946 0
-2946 2943 2925 0
-2944 2947 0
-2943 -2925 2947 0
-2947 2944 2943 0
-2947 2944 2925 0
-2945 2948 0
-2944 -2925 2948 0
-2948 2945 2944 0
-2948 2945 2925 0
-2946 2949 0
-2926 2949 0
-2949 2946 2926 0
-2947 2950 0
-2946 -2926 2950 0
-2950 2947 2946 0
-2950 2947 2926 0
-2948 2951 0
-2947 -2926 2951 0
-2951 2948 2947 0
-2951 2948 2926 0
-2949 2952 0
-2927 2952 0
-2952 2949 2927 0
-2950 2953 0
-2949 -2927 2953 0
-2953 2950 2949 0
-2953 2950 2927 0
-2951 2954 0
-2950 -2927 2954 0
-2954 2951 2950 0
-2954 2951 2927 0
-2952 2955 0
-2928 2955 0
-2955 2952 2928 0
-2953 2956 0
-2952 -2928 2956 0
-2956 2953 2952 0
-2956 2953 2928 0
-2954 2957 0
-2953 -2928 2957 0
-2957 2954 2953 0
-2957 2954 2928 0
-2955 2958 0
-2929 2958 0
-2958 2955 2929 0
-2956 2959 0
-2955 -2929 2959 0
-2959 2956 2955 0
-2959 2956 2929 0
-2957 2960 0
-2956 -2929 2960 0
-2960 2957 2956 0
-2960 2957 2929 0
-2958 2961 0
-2930 2961 0
-2961 2958 2930 0
-2959 2962 0
-2958 -2930 2962 0
-2962 2959 2958 0
-2962 2959 2930 0
-2960 2963 0
-2959 -2930 2963 0
-2963 2960 2959 0
-2963 2960 2930 0
-2961 2964 0
-2931 2964 0
-2964 2961 2931 0
-2962 2965 0
-2961 -2931 2965 0
-2965 2962 2961 0
-2965 2962 2931 0
-2963 2966 0
-2962 -2931 2966 0
-2966 2963 2962 0
-2966 2963 2931 0
-2964 2967 0
-2932 2967 0
-2967 2964 2932 0
-2965 2968 0
-2964 -2932 2968 0
-2968 2965 2964 0
-2968 2965 2932 0
-2966 2969 0
-2965 -2932 2969 0
-2969 2966 2965 0
-2969 2966 2932 0
-2967 2970 0
-2933 2970 0
-2970 2967 2933 0
-2968 2971 0
-2967 -2933 2971 0
-2971 2968 2967 0
-2971 2968 2933 0
-2969 2972 0
-2968 -2933 2972 0
-2972 2969 2968 0
-2972 2969 2933 0
2972 0
-2973 1 0
-2973 127 0
2973 -1 -127 0
-2974 2 0
-2974 128 0
2974 -2 -128 0
-2975 3 0
-2975 129 0
2975 -3 -129 0
-2976 4 0
-2976 130 0
2976 -4 -130 0
-2977 5 0
-2977 131 0
2977 -5 -131 0
-2978 6 0
-2978 132 0
2978 -6 -132 0
-2979 7 0
-2979 133 0
2979 -7 -133 0
-2980 8 0
-2980 134 0
2980 -8 -134 0
-2981 9 0
-2981 135 0
2981 -9 -135 0
-2982 10 0
-2982 136 0
2982 -10 -136 0
-2983 11 0
-2983 137 0
2983 -11 -137 0
-2984 12 0
-2984 138 0
2984 -12 -138 0
-2985 13 0
-2985 139 0
2985 -13 -139 0
-2986 14 0
-2986 140 0
2986 -14 -140 0
-2973 2987 0
-2987 2973 0
-2987 2988 0
-2974 2988 0
-2988 2987 2974 0
-2987 -2974 2989 0
-2989 2987 0
-2989 2974 0
-2988 2990 0
-2975 2990 0
-2990 2988 2975 0
-2989 2991 0
-2988 -2975 2991 0
-2991 2989 2988 0
-2991 2989 2975 0
-2989 -2975 2992 0
-2992 2989 0
-2992 2975 0
-2990 2993 0
-2976 2993 0
-2993 2990 2976 0
-2991 2994 0
-2990 -2976 2994 0
-2994 2991 2990 0
-2994 2991 2976 0
-2992 2995 0
-2991 -2976 2995 0
-2995 2992 2991 0
-2995 2992 2976 0
-2993 2996 0
-2977 2996 0
-2996 2993 2977 0
-2994 2997 0
-2993 -2977 2997 0
-2997 2994 2993 0
-2997 2994 2977 0
-2995 2998 0
-2994 -2977 2998 0
-2998 2995 2994 0
-2998 2995 2977 0
-2996 2999 0
-2978 2999 0
-2999 2996 2978 0
-2997 3000 0
-2996 -2978 3000 0
-3000 2997 2996 0
-3000 2997 2978 0
-2998 3001 0
-2997 -2978 3001 0
-3001 2998 2997 0
-3001 2998 2978 0
-2999 3002 0
-2979 3002 0
-3002 2999 2979 0
-3000 3003 0
-2999 -2979 3003 0
-3003 3000 2999 0
-3003 3000 2979 0
-3001 3004 0
-3000 -2979 3004 0
-3004 3001 3000 0
-3004 3001 2979 0
-3002 3005 0
-2980 3005 0
-3005 3002 2980 0
-3003 3006 0
-3002 -2980 3006 0
-3006 3003 3002 0
-3006 3003 2980 0
-3004 3007 0
-3003 -2980 3007 0
-3007 3004 3003 0
-3007 3004 2980 0
-3005 3008 0
-2981 3008 0
-3008 3005 2981 0
-3006 3009 0
-3005 -2981 3009 0
-3009 3006 3005 0
-3009 3006 2981 0
-3007 3010 0
-3006 -2981 3010 0
-3010 3007 3006 0
-3010 3007 2981 0
-3008 3011 0
-2982 3011 0
-3011 3008 2982 0
-3009 3012 0
-3008 -2982 3012 0
-3012 3009 3008 0
-3012 3009 2982 0
-3010 3013 0
-3009 -2982 3013 0
-3013 3010 3009 0
-3013 3010 2982 0
-3011 3014 0
-2983 3014 0
-3014 3011 2983 0
-3012 3015 0
-3011 -2983 3015 0
-3015 3012 3011 0
-3015 3012 2983 0
-3013 3016 0
-3012 -2983 3016 0
-3016 3013 3012 0
-3016 3013 2983 0
-3014 3017 0
-2984 3017 0
-3017 3014 2984 0
-3015 3018 0
-3014 -2984 3018 0
-3018 3015 3014 0
-3018 3015 2984 0
-3016 3019 0
-3015 -2984 3019 0
-3019 3016 3015 0
-3019 3016 2984 0
-3017 3020 0
-2985 3020 0
-3020 3017 2985 0
-3018 3021 0
-3017 -2985 3021 0
-3021 3018 3017 0
-3021 3018 2985 0
-3019 3022 0
-3018 -2985 3022 0
-3022 3019 3018 0
-3022 3019 2985 0
-3020 3023 0
-2986 3023 0
-3023 3020 2986 0
-3021 3024 0
-3020 -2986 3024 0
-3024 3021 3020 0
-3024 3021 2986 0
-3022 3025 0
-3021 -2986 3025 0
-3025 3022 3021 0
-3025 3022 2986 0
3025 0
-3026 1 0
-3026 141 0
3026 -1 -141 0
-3027 2 0
-3027 142 0
3027 -2 -142 0
-3028 3 0
-3028 143 0
3028 -3 -143 0
-3029 4 0
-3029 144 0
3029 -4 -144 0
-3030 5 0
-3030 145 0
3030 -5 -145 0
-3031 6 0
-3031 146 0
3031 -6 -146 0
-3032 7 0
-3032 147 0
3032 -7 -147 0
-3033 8 0
-3033 148 0
3033 -8 -148 0
-3034 9 0
-3034 149 0
3034 -9 -149 0
-3035 10 0
-3035 150 0
3035 -10 -150 0
-3036 11 0
-3036 151 0
3036 -11 -151 0
-3037 12 0
-3037 152 0
3037 -12 -152 0
-3038 13 0
-3038 153 0
3038 -13 -153 0
-3039 14 0
-3039 154 0
3039 -14 -154 0
-3026 3040 0
-3040 3026 0
-3040 3041 0
-3027 3041 0
-3041 3040 3027 0
-3040 -3027 3042 0
-3042 3040 0
-3042 3027 0
-3041 3043 0
-3028 3043 0
-3043 3041 3028 0
-3042 3044 0
-3041 -3028 3044 0
-3044 3042 3041 0
-3044 3042 3028 0
-3042 -3028 3045 0
-3045 3042 0
-3045 3028 0
-3043 3046 0
-3029 3046 0
-3046 3043 3029 0
-3044 3047 0
-3043 -3029 3047 0
-3047 3044 3043 0
-3047 3044 3029 0
-3045 3048 0
-3044 -3029 3048 0
-3048 3045 3044 0
-3048 3045 3029 0
-3046 3049 0
-3030 3049 0
-3049 3046 3030 0
-3047 3050 0
-3046 -3030 3050 0
-3050 3047 3046 0
-3050 3047 3030 0
-3048 3051 0
-3047 -3030 3051 0
-3051 3048 3047 0
-3051 3048 3030 0
-3049 3052 0
-3031 3052 0
-3052 3049 3031 0
-3050 3053 0
-3049 -3031 3053 0
-3053 3050 3049 0
-3053 3050 3031 0
-3051 3054 0
-3050 -3031 3054 0
-3054 3051 3050 0
-3054 3051 3031 0
-3052 3055 0
-3032 3055 0
-3055 3052 3032 0
-3053 3056 0
-3052 -3032 3056 0
-3056 3053 3052 0
-3056 3053 3032 0
-3054 3057 0
-3053 -3032 3057 0
-3057 3054 3053 0
-3057 3054 3032 0
-3055 3058 0
-3033 3058 0
-3058 3055 3033 0
-3056 3059 0
-3055 -3033 3059 0
-3059 3056 3055 0
-3059 3056 3033 0
-3057 3060 0
-3056 -3033 3060 0
-3060 3057 3056 0
-3060 3057 3033 0
-3058 3061 0
-3034 3061 0
-3061 3058 3034 0
-3059 3062 0
-3058 -3034 3062 0
-3062 3059 3058 0
-3062 3059 3034 0
-3060 3063 0
-3059 -3034 3063 0
-3063 3060 3059 0
-3063 3060 3034 0
-3061 3064 0
-3035 3064 0
-3064 3061 3035 0
-3062 3065 0
-3061 -3035 3065 0
-3065 3062 3061 0
-3065 3062 3035 0
-3063 3066 0
-3062 -3035 3066 0
-3066 3063 3062 0
-3066 3063 3035 0
-3064 3067 0
-3036 3067 0
-3067 3064 3036 0
-3065 3068 0
-3064 -3036 3068 0
-3068 3065 3064 0
-3068 3065 3036 0
-3066 3069 0
-3065 -3036 3069 0
-3069 3066 3065 0
-3069 3066 3036 0
-3067 3070 0
-3037 3070 0
-3070 3067 3037 0
-3068 3071 0
-3067 -3037 3071 0
-3071 3068 3067 0
-3071 3068 3037 0
-3069 3072 0
-3068 -3037 3072 0
-3072 3069 3068 0
-3072 3069 3037 0
-3070 3073 0
-3038 3073 0
-3073 3070 3038 0
-3071 3074 0
-3070 -3038 3074 0
-3074 3071 3070 0
-3074 3071 3038 0
-3072 3075 0
-3071 -3038 3075 0
-3075 3072 3071 0
-3075 3072 3038 0
-3073 3076 0
-3039 3076 0
-3076 3073 3039 0
-3074 3077 0
-3073 -3039 3077 0
-3077 3074 3073 0
-3077 3074 3039 0
-3075 3078 0
-3074 -3039 3078 0
-3078 3075 3074 0
-3078 3075 3039 0
3078 0
-3079 1 0
-3079 155 0
3079 -1 -155 0
-3080 2 0
-3080 156 0
3080 -2 -156 0
-3081 3 0
-3081 157 0
3081 -3 -157 0
-3082 4 0
-3082 158 0
3082 -4 -158 0
-3083 5 0
-3083 159 0
3083 -5 -159 0
-3084 6 0
-3084 160 0
3084 -6 -160 0
-3085 7 0
-3085 161 0
3085 -7 -161 0
-3086 8 0
-3086 162 0
3086 -8 -162 0
-3087 9 0
-3087 163 0
3087 -9 -163 0
-3088 10 0
-3088 164 0
3088 -10 -164 0
-3089 11 0
-3089 165 0
3089 -11 -165 0
-3090 12 0
-3090 166 0
3090 -12 -166 0
-3091 13 0
-3091 167 0
3091 -13 -167 0
-3092 14 0
-3092 168 0
3092 -14 -168 0
-3079 3093 0
-3093 3079 0
-3093 3094 0
-3080 3094 0
-3094 3093 3080 0
-3093 -3080 3095 0
-3095 3093 0
-3095 3080 0
-3094 3096 0
-3081 3096 0
-3096 3094 3081 0
-3095 3097 0
-3094 -3081 3097 0
-3097 3095 3094 0
-3097 3095 3081 0
-3095 -3081 3098 0
-3098 3095 0
-3098 3081 0
-3096 3099 0
-3082 3099 0
-3099 3096 3082 0
-3097 3100 0
-3096 -3082 3100 0
-3100 3097 3096 0
-3100 3097 3082 0
-3098 3101 0
-3097 -3082 3101 0
-3101 3098 3097 0
-3101 3098 3082 0
-3099 3102 0
-3083 3102 0
-3102 3099 3083 0
-3100 3103 0
-3099 -3083 3103 0
-3103 3100 3099 0
-3103 3100 3083 0
-3101 3104 0
-3100 -3083 3104 0
-3104 3101 3100 0
-3104 3101 3083 0
-3102 3105 0
-3084 3105 0
-3105 3102 3084 0
-3103 3106 0
-3102 -3084 3106 0
-3106 3103 3102 0
-3106 3103 3084 0
-3104 3107 0
-3103 -3084 3107 0
-3107 3104 3103 0
-3107 3104 3084 0
-3105 3108 0
-3085 3108 0
-3108 3105 3085 0
-3106 3109 0
-3105 -3085 3109 0
-3109 3106 3105 0
-3109 3106 3085 0
-3107 3110 0
-3106 -3085 3110 0
-3110 3107 3106 0
-3110 3107 3085 0
-3108 3111 0
-3086 3111 0
-3111 3108 3086 0
-3109 3112 0
-3108 -3086 3112 0
-3112 3109 3108 0
-3112 3109 3086 0
-3110 3113 0
-3109 -3086 3113 0
-3113 3110 3109 0
-3113 3110 3086 0
-3111 3114 0
-3087 3114 0
-3114 3111 3087 0
-3112 3115 0
-3111 -3087 3115 0
-3115 3112 3111 0
-3115 3112 3087 0
-3113 3116 0
-3112 -3087 3116 0
-3116 3113 3112 0
-3116 3113 3087 0
-3114 3117 0
-3088 3117 0
-3117 3114 3088 0
-3115 3118 0
-3114 -3088 3118 0
-3118 3115 3114 0
-3118 3115 3088 0
-3116 3119 0
-3115 -3088 3119 0
-3119 3116 3115 0
-3119 3116 3088 0
-3117 3120 0
-3089 3120 0
-3120 3117 3089 0
-3118 3121 0
-3117 -3089 3121 0
-3121 3118 3117 0
-3121 3118 3089 0
-3119 3122 0
-3118 -3089 3122 0
-3122 3119 3118 0
-3122 3119 3089 0
-3120 3123 0
-3090 3123 0
-3123 3120 3090 0
-3121 3124 0
-3120 -3090 3124 0
-3124 3121 3120 0
-3124 3121 3090 0
-3122 3125 0
-3121 -3090 3125 0
-3125 3122 3121 0
-3125 3122 3090 0
-3123 3126 0
-3091 3126 0
-3126 3123 3091 0
-3124 3127 0
-3123 -3091 3127 0
-3127 3124 3123 0
-3127 3124 3091 0
-3125 3128 0
-3124 -3091 3128 0
-3128 3125 3124 0
-3128 3125 3091 0
-3126 3129 0
-3092 3129 0
-3129 3126 3092 0
-3127 3130 0
-3126 -3092 3130 0
-3130 3127 3126 0
-3130 3127 3092 0
-3128 3131 0
-3127 -3092 3131 0
-3131 3128 3127 0
-3131 3128 3092 0
3131 0
-3132 1 0
-3132 169 0
3132 -1 -169 0
-3133 2 0
-3133 170 0
3133 -2 -170 0
-3134 3 0
-3134 171 0
3134 -3 -171 0
-3135 4 0
-3135 172 0
3135 -4 -172 0
-3136 5 0
-3136 173 0
3136 -5 -173 0
-3137 6 0
-3137 174 0
3137 -6 -174 0
-3138 7 0
-3138 175 0
3138 -7 -175 0
-3139 8 0
-3139 176 0
3139 -8 -176 0
-3140 9 0
-3140 177 0
3140 -9 -177 0
-3141 10 0
-3141 178 0
3141 -10 -178 0
-3142 11 0
-3142 179 0
3142 -11 -179 0
-3143 12 0
-3143 180 0
3143 -12 -180 0
-3144 13 0
-3144 181 0
3144 -13 -181 0
-3145 14 0
-3145 182 0
3145 -14 -182 0
-3132 3146 0
-3146 3132 0
-3146 3147 0
-3133 3147 0
-3147 3146 3133 0
-3146 -3133 3148 0
-3148 3146 0
-3148 3133 0
-3147 3149 0
-3134 3149 0
-3149 3147 3134 0
-3148 3150 0
-3147 -3134 3150 0
-3150 3148 3147 0
-3150 3148 3134 0
-3148 -3134 3151 0
-3151 3148 0
-3151 3134 0
-3149 3152 0
-3135 3152 0
-3152 3149 3135 0
-3150 3153 0
-3149 -3135 3153 0
-3153 3150 3149 0
-3153 3150 3135 0
-3151 3154 0
-3150 -3135 3154 0
-3154 3151 3150 0
-3154 3151 3135 0
-3152 3155 0
-3136 3155 0
-3155 3152 3136 0
-3153 3156 0
-3152 -3136 3156 0
-3156 3153 3152 0
-3156 3153 3136 0
-3154 3157 0
-3153 -3136 3157 0
-3157 3154 3153 0
-3157 3154 3136 0
-3155 3158 0
-3137 3158 0
-3158 3155 3137 0
-3156 3159 0
-3155 -3137 3159 0
-3159 3156 3155 0
-3159 3156 3137 0
-3157 3160 0
-3156 -3137 3160 0
-3160 3157 3156 0
-3160 3157 3137 0
-3158 3161 0
-3138 3161 0
-3161 3158 3138 0
-3159 3162 0
-3158 -3138 3162 0
-3162 3159 3158 0
-3162 3159 3138 0
-3160 3163 0
-3159 -3138 3163 0
-3163 3160 3159 0
-3163 3160 3138 0
-3161 3164 0
-3139 3164 0
-3164 3161 3139 0
-3162 3165 0
-3161 -3139 3165 0
-3165 3162 3161 0
-3165 3162 3139 0
-3163 3166 0
-3162 -3139 3166 0
-3166 3163 3162 0
-3166 3163 3139 0
-3164 3167 0
-3140 3167 0
-3167 3164 3140 0
-3165 3168 0
-3164 -3140 3168 0
-3168 3165 3164 0
-3168 3165 3140 0
-3166 3169 0
-3165 -3140 3169 0
-3169 3166 3165 0
-3169 3166 3140 0
-3167 3170 0
-3141 3170 0
-3170 3167 3141 0
-3168 3171 0
-3167 -3141 3171 0
-3171 3168 3167 0
-3171 3168 3141 0
-3169 3172 0
-3168 -3141 3172 0
-3172 3169 3168 0
-3172 3169 3141 0
-3170 3173 0
-3142 3173 0
-3173 3170 3142 0
-3171 3174 0
-3170 -3142 3174 0
-3174 3171 3170 0
-3174 3171 3142 0
-3172 3175 0
-3171 -3142 3175 0
-3175 3172 3171 0
-3175 3172 3142 0
-3173 3176 0
-3143 3176 0
-3176 3173 3143 0
-3174 3177 0
-3173 -3143 3177 0
-3177 3174 3173 0
-3177 3174 3143 0
-3175 3178 0
-3174 -3143 3178 0
-3178 3175 3174 0
-3178 3175 3143 0
-3176 3179 0
-3144 3179 0
-3179 3176 3144 0
-3177 3180 0
-3176 -3144 3180 0
-3180 3177 3176 0
-3180 3177 3144 0
-3178 3181 0
-3177 -3144 3181 0
-3181 3178 3177 0
-3181 3178 3144 0
-3179 3182 0
-3145 3182 0
-3182 3179 3145 0
-3180 3183 0
-3179 -3145 3183 0
-3183 3180 3179 0
-3183 3180 3145 0
-3181 3184 0
-3180 -3145 3184 0
-3184 3181 3180 0
-3184 3181 3145 0
3184 0
-3185 1 0
-3185 183 0
3185 -1 -183 0
-3186 2 0
-3186 184 0
3186 -2 -184 0
-3187 3 0
-3187 185 0
3187 -3 -185 0
-3188 4 0
-3188 186 0
3188 -4 -186 0
-3189 5 0
-3189 187 0
3189 -5 -187 0
-3190 6 0
-3190 188 0
3190 -6 -188 0
-3191 7 0
-3191 189 0
3191 -7 -189 0
-3192 8 0
-3192 190 0
3192 -8 -190 0
-3193 9 0
-3193 191 0
3193 -9 -191 0
-3194 10 0
-3194 192 0
3194 -10 -192 0
-3195 11 0
-3195 193 0
3195 -11 -193 0
-3196 12 0
-3196 194 0
3196 -12 -194 0
-3197 13 0
-3197 195 0
3197 -13 -195 0
-3198 14 0
-3198 196 0
3198 -14 -196 0
-3185 3199 0
-3199 3185 0
-3199 3200 0
-3186 3200 0
-3200 3199 3186 0
-3199 -3186 3201 0
-3201 3199 0
-3201 3186 0
-3200 3202 0
-3187 3202 0
-3202 3200 3187 0
-3201 3203 0
-3200 -3187 3203 0
-3203 3201 3200 0
-3203 3201 3187 0
-3201 -3187 3204 0
-3204 3201 0
-3204 3187 0
-3202 3205 0
-3188 3205 0
-3205 3202 3188 0
-3203 3206 0
-3202 -3188 3206 0
-3206 3203 3202 0
-3206 3203 3188 0
-3204 3207 0
-3203 -3188 3207 0
-3207 3204 3203 0
-3207 3204 3188 0
-3205 3208 0
-3189 3208 0
-3208 3205 3189 0
-3206 3209 0
-3205 -3189 3209 0
-3209 3206 3205 0
-3209 3206 3189 0
-3207 3210 0
-3206 -3189 3210 0
-3210 3207 3206 0
-3210 3207 3189 0
-3208 3211 0
-3190 3211 0
-3211 3208 3190 0
-3209 3212 0
-3208 -3190 3212 0
-3212 3209 3208 0
-3212 3209 3190 0
-3210 3213 0
-3209 -3190 3213 0
-3213 3210 3209 0
-3213 3210 3190 0
-3211 3214 0
-3191 3214 0
-3214 3211 3191 0
-3212 3215 0
-3211 -3191 3215 0
-3215 3212 3211 0
-3215 3212 3191 0
-3213 3216 0
-3212 -3191 3216 0
-3216 3213 3212 0
-3216 3213 3191 0
-3214 3217 0
-3192 3217 0
-3217 3214 3192 0
-3215 3218 0
-3214 -3192 3218 0
-3218 3215 3214 0
-3218 3215 3192 0
-3216 3219 0
-3215 -3192 3219 0
-3219 3216 3215 0
-3219 3216 3192 0
-3217 3220 0
-3193 3220 0
-3220 3217 3193 0
-3218 3221 0
-3217 -3193 3221 0
-3221 3218 3217 0
-3221 3218 3193 0
-3219 3222 0
-3218 -3193 3222 0
-3222 3219 3218 0
-3222 3219 3193 0
-3220 3223 0
-3194 3223 0
-3223 3220 3194 0
-3221 3224 0
-3220 -3194 3224 0
-3224 3221 3220 0
-3224 3221 3194 0
-3222 3225 0
-3221 -3194 3225 0
-3225 3222 3221 0
-3225 3222 3194 0
-3223 3226 0
-3195 3226 0
-3226 3223 3195 0
-3224 3227 0
-3223 -3195 3227 0
-3227 3224 3223 0
-3227 3224 3195 0
-3225 3228 0
-3224 -3195 3228 0
-3228 3225 3224 0
-3228 3225 3195 0
-3226 3229 0
-3196 3229 0
-3229 3226 3196 0
-3227 3230 0
-3226 -3196 3230 0
-3230 3227 3226 0
-3230 3227 3196 0
-3228 3231 0
-3227 -3196 3231 0
-3231 3228 3227 0
-3231 3228 3196 0
-3229 3232 0
-3197 3232 0
-3232 3229 3197 0
-3230 3233 0
-3229 -3197 3233 0
-3233 3230 3229 0
-3233 3230 3197 0
-3231 3234 0
-3230 -3197 3234 0
-3234 3231 3230 0
-3234 3231 3197 0
-3232 3235 0
-3198 3235 0
-3235 3232 3198 0
-3233 3236 0
-3232 -3198 3236 0
-3236 3233 3232 0
-3236 3233 3198 0
-3234 3237 0
-3233 -3198 3237 0
-3237 3234 3233 0
-3237 3234 3198 0
3237 0
-3238 15 0
-3238 29 0
3238 -15 -29 0
-3239 16 0
-3239 30 0
3239 -16 -30 0
-3240 17 0
-3240 31 0
3240 -17 -31 0
-3241 18 0
-3241 32 0
3241 -18 -32 0
-3242 19 0
-3242 33 0
3242 -19 -33 0
-3243 20 0
-3243 34 0
3243 -20 -34 0
-3244 21 0
-3244 35 0
3244 -21 -35 0
-3245 22 0
-3245 36 0
3245 -22 -36 0
-3246 23 0
-3246 37 0
3246 -23 -37 0
-3247 24 0
-3247 38 0
3247 -24 -38 0
-3248 25 0
-3248 39 0
3248 -25 -39 0
-3249 26 0
-3249 40 0
3249 -26 -40 0
-3250 27 0
-3250 41 0
3250 -27 -41 0
-3251 28 0
-3251 42 0
3251 -28 -42 0
-3238 3252 0
-3252 3238 0
-3252 3253 0
-3239 3253 0
-3253 3252 3239 0
-3252 -3239 3254 0
-3254 3252 0
-3254 3239 0
-3253 3255 0
-3240 3255 0
-3255 3253 3240 0
-3254 3256 0
-3253 -3240 3256 0
-3256 3254 3253 0
-3256 3254 3240 0
-3254 -3240 3257 0
-3257 3254 0
-3257 3240 0
-3255 3258 0
-3241 3258 0
-3258 3255 3241 0
-3256 3259 0
-3255 -3241 3259 0
-3259 3256 3255 0
-3259 3256 3241 0
-3257 3260 0
-3256 -3241 3260 0
-3260 3257 3256 0
-3260 3257 3241 0
-3258 3261 0
-3242 3261 0
-3261 3258 3242 0
-3259 3262 0
-3258 -3242 3262 0
-3262 3259 3258 0
-3262 3259 3242 0
-3260 3263 0
-3259 -3242 3263 0
-3263 3260 3259 0
-3263 3260 3242 0
-3261 3264 0
-3243 3264 0
-3264 3261 3243 0
-3262 3265 0
-3261 -3243 3265 0
-3265 3262 3261 0
-3265 3262 3243 0
-3263 3266 0
-3262 -3243 3266 0
-3266 3263 3262 0
-3266 3263 3243 0
-3264 3267 0
-3244 3267 0
-3267 3264 3244 0
-3265 3268 0
-3264 -3244 3268 0
-3268 3265 3264 0
-3268 3265 3244 0
-3266 3269 0
-3265 -3244 3269 0
-3269 3266 3265 0
-3269 3266 3244 0
-3267 3270 0
-3245 3270 0
-3270 3267 3245 0
-3268 3271 0
-3267 -3245 3271 0
-3271 3268 3267 0
-3271 3268 3245 0
-3269 3272 0
-3268 -3245 3272 0
-3272 3269 3268 0
-3272 3269 3245 0
-3270 3273 0
-3246 3273 0
-3273 3270 3246 0
-3271 3274 0
-3270 -3246 3274 0
-3274 3271 3270 0
-3274 3271 3246 0
-3272 3275 0
-3271 -3246 3275 0
-3275 3272 3271 0
-3275 3272 3246 0
-3273 3276 0
-3247 3276 0
-3276 3273 3247 0
-3274 3277 0
-3273 -3247 3277 0
-3277 3274 3273 0
-3277 3274 3247 0
-3275 3278 0
-3274 -3247 3278 0
-3278 3275 3274 0
-3278 3275 3247 0
-3276 3279 0
-3248 3279 0
-3279 3276 3248 0
-3277 3280 0
-3276 -3248 3280 0
-3280 3277 3276 0
-3280 3277 3248 0
-3278 3281 0
-3277 -3248 3281 0
-3281 3278 3277 0
-3281 3278 3248 0
-3279 3282 0
-3249 3282 0
-3282 3279 3249 0
-3280 3283 0
-3279 -3249 3283 0
-3283 3280 3279 0
-3283 3280 3249 0
-3281 3284 0
-3280 -3249 3284 0
-3284 3281 3280 0
-3284 3281 3249 0
-3282 3285 0
-3250 3285 0
-3285 3282 3250 0
-3283 3286 0
-3282 -3250 3286 0
-3286 3283 3282 0
-3286 3283 3250 0
-3284 3287 0
-3283 -3250 3287 0
-3287 3284 3283 0
-3287 3284 3250 0
-3285 3288 0
-3251 3288 0
-3288 3285 3251 0
-3286 3289 0
-3285 -3251 3289 0
-3289 3286 3285 0
-3289 3286 3251 0
-3287 3290 0
-3286 -3251 3290 0
-3290 3287 3286 0
-3290 3287 3251 0
3290 0
-3291 15 0
-3291 43 0
3291 -15 -43 0
-3292 16 0
-3292 44 0
3292 -16 -44 0
-3293 17 0
-3293 45 0
3293 -17 -45 0
-3294 18 0
-3294 46 0
3294 -18 -46 0
-3295 19 0
-3295 47 0
3295 -19 -47 0
-3296 20 0
-3296 48 0
3296 -20 -48 0
-3297 21 0
-3297 49 0
3297 -21 -49 0
-3298 22 0
-3298 50 0
3298 -22 -50 0
-3299 23 0
-3299 51 0
3299 -23 -51 0
-3300 24 0
-3300 52 0
3300 -24 -52 0
-3301 25 0
-3301 53 0
3301 -25 -53 0
-3302 26 0
-3302 54 0
3302 -26 -54 0
-3303 27 0
-3303 55 0
3303 -27 -55 0
-3304 28 0
-3304 56 0
3304 -28 -56 0
-3291 3305 0
-3305 3291 0
-3305 3306 0
-3292 3306 0
-3306 3305 3292 0
-3305 -3292 3307 0
-3307 3305 0
-3307 3292 0
-3306 3308 0
-3293 3308 0
-3308 3306 3293 0
-3307 3309 0
-3306 -3293 3309 0
-3309 3307 3306 0
-3309 3307 3293 0
-3307 -3293 3310 0
-3310 3307 0
-3310 3293 0
-3308 3311 0
-3294 3311 0
-3311 3308 3294 0
-3309 3312 0
-3308 -3294 3312 0
-3312 3309 3308 0
-3312 3309 3294 0
-3310 3313 0
-3309 -3294 3313 0
-3313 3310 3309 0
-3313 3310 3294 0
-3311 3314 0
-3295 3314 0
-3314 3311 3295 0
-3312 3315 0
-3311 -3295 3315 0
-3315 3312 3311 0
-3315 3312 3295 0
-3313 3316 0
-3312 -3295 3316 0
-3316 3313 3312 0
-3316 3313 3295 0
-3314 3317 0
-3296 3317 0
-3317 3314 3296 0
-3315 3318 0
-3314 -3296 3318 0
-3318 3315 3314 0
-3318 3315 3296 0
-3316 3319 0
-3315 -3296 3319 0
-3319 3316 3315 0
-3319 3316 3296 0
-3317 3320 0
-3297 3320 0
-3320 3317 3297 0
-3318 3321 0
-3317 -3297 3321 0
-3321 3318 3317 0
-3321 3318 3297 0
-3319 3322 0
-3318 -3297 3322 0
-3322 3319 3318 0
-3322 3319 3297 0
-3320 3323 0
-3298 3323 0
-3323 3320 3298 0
-3321 3324 0
-3320 -3298 3324 0
-3324 3321 3320 0
-3324 3321 3298 0
-3322 3325 0
-3321 -3298 3325 0
-3325 3322 3321 0
-3325 3322 3298 0
-3323 3326 0
-3299 3326 0
-3326 3323 3299 0
-3324 3327 0
-3323 -3299 3327 0
-3327 3324 3323 0
-3327 3324 3299 0
-3325 3328 0
-3324 -3299 3328 0
-3328 3325 3324 0
-3328 3325 3299 0
-3326 3329 0
-3300 3329 0
-3329 3326 3300 0
-3327 3330 0
-3326 -3300 3330 0
-3330 3327 3326 0
-3330 3327 3300 0
-3328 3331 0
-3327 -3300 3331 0
-3331 3328 3327 0
-3331 3328 3300 0
-3329 3332 0
-3301 3332 0
-3332 3329 3301 0
-3330 3333 0
-3329 -3301 3333 0
-3333 3330 3329 0
-3333 3330 3301 0
-3331 3334 0
-3330 -3301 3334 0
-3334 3331 3330 0
-3334 3331 3301 0
-3332 3335 0
-3302 3335 0
-3335 3332 3302 0
-3333 3336 0
-3332 -3302 3336 0
-3336 3333 3332 0
-3336 3333 3302 0
-3334 3337 0
-3333 -3302 3337 0
-3337 3334 3333 0
-3337 3334 3302 0
-3335 3338 0
-3303 3338 0
-3338 3335 3303 0
-3336 3339 0
-3335 -3303 3339 0
-3339 3336 3335 0
-3339 3336 3303 0
-3337 3340 0
-3336 -3303 3340 0
-3340 3337 3336 0
-3340 3337 3303 0
-3338 3341 0
-3304 3341 0
-3341 3338 3304 0
-3339 3342 0
-3338 -3304 3342 0
-3342 3339 3338 0
-3342 3339 3304 0
-3340 3343 0
-3339 -3304 3343 0
-3343 3340 3339 0
-3343 3340 3304 0
3343 0
-3344 15 0
-3344 57 0
3344 -15 -57 0
-3345 16 0
-3345 58 0
3345 -16 -58 0
-3346 17 0
-3346 59 0
3346 -17 -59 0
-3347 18 0
-3347 60 0
3347 -18 -60 0
-3348 19 0
-3348 61 0
3348 -19 -61 0
-3349 20 0
-3349 62 0
3349 -20 -62 0
-3350 21 0
-3350 63 0
3350 -21 -63 0
-3351 22 0
-3351 64 0
3351 -22 -64 0
-3352 23 0
-3352 65 0
3352 -23 -65 0
-3353 24 0
-3353 66 0
3353 -24 -66 0
-3354 25 0
-3354 67 0
3354 -25 -67 0
-3355 26 0
-3355 68 0
3355 -26 -68 0
-3356 27 0
-3356 69 0
3356 -27 -69 0
-3357 28 0
-3357 70 0
3357 -28 -70 0
-3344 3358 0
-3358 3344 0
-3358 3359 0
-3345 3359 0
-3359 3358 3345 0
-3358 -3345 3360 0
-3360 3358 0
-3360 3345 0
-3359 3361 0
-3346 3361 0
-3361 3359 3346 0
-3360 3362 0
-3359 -3346 3362 0
-3362 3360 3359 0
-3362 3360 3346 0
-3360 -3346 3363 0
-3363 3360 0
-3363 3346 0
-3361 3364 0
-3347 3364 0
-3364 3361 3347 0
-3362 3365 0
-3361 -3347 3365 0
-3365 3362 3361 0
-3365 3362 3347 0
-3363 3366 0
-3362 -3347 3366 0
-3366 3363 3362 0
-3366 3363 3347 0
-3364 3367 0
-3348 3367 0
-3367 3364 3348 0
-3365 3368 0
-3364 -3348 3368 0
-3368 3365 3364 0
-3368 3365 3348 0
-3366 3369 0
-3365 -3348 3369 0
-3369 3366 3365 0
-3369 3366 3348 0
-3367 3370 0
-3349 3370 0
-3370 3367 3349 0
-3368 3371 0
-3367 -3349 3371 0
-3371 3368 3367 0
-3371 3368 3349 0
-3369 3372 0
-3368 -3349 3372 0
-3372 3369 3368 0
-3372 3369 3349 0
-3370 3373 0
-3350 3373 0
-3373 3370 3350 0
-3371 3374 0
-3370 -3350 3374 0
-3374 3371 3370 0
-3374 3371 3350 0
-3372 3375 0
-3371 -3350 3375 0
-3375 3372 3371 0
-3375 3372 3350 0
-3373 3376 0
-3351 3376 0
-3376 3373 3351 0
-3374 3377 0
-3373 -3351 3377 0
-3377 3374 3373 0
-3377 3374 3351 0
-3375 3378 0
-3374 -3351 3378 0
-3378 3375 3374 0
-3378 3375 3351 0
-3376 3379 0
-3352 3379 0
-3379 3376 3352 0
-3377 3380 0
-3376 -3352 3380 0
-3380 3377 3376 0
-3380 3377 3352 0
-3378 3381 0
-3377 -3352 3381 0
-3381 3378 3377 0
-3381 3378 3352 0
-3379 3382 0
-3353 3382 0
-3382 3379 3353 0
-3380 3383 0
-3379 -3353 3383 0
-3383 3380 3379 0
-3383 3380 3353 0
-3381 3384 0
-3380 -3353 3384 0
-3384 3381 3380 0
-3384 3381 3353 0
-3382 3385 0
-3354 3385 0
-3385 3382 3354 0
-3383 3386 0
-3382 -3354 3386 0
-3386 3383 3382 0
-3386 3383 3354 0
-3384 3387 0
-3383 -3354 3387 0
-3387 3384 3383 0
-3387 3384 3354 0
-3385 3388 0
-3355 3388 0
-3388 3385 3355 0
-3386 3389 0
-3385 -3355 3389 0
-3389 3386 3385 0
-3389 3386 3355 0
-3387 3390 0
-3386 -3355 3390 0
-3390 3387 3386 0
-3390 3387 3355 0
-3388 3391 0
-3356 3391 0
-3391 3388 3356 0
-3389 3392 0
-3388 -3356 3392 0
-3392 3389 3388 0
-3392 3389 3356 0
-3390 3393 0
-3389 -3356 3393 0
-3393 3390 3389 0
-3393 3390 3356 0
-3391 3394 0
-3357 3394 0
-3394 3391 3357 0
-3392 3395 0
-3391 -3357 3395 0
-3395 3392 3391 0
-3395 3392 3357 0
-3393 3396 0
-3392 -3357 3396 0
-3396 3393 3392 0
-3396 3393 3357 0
3396 0
-3397 15 0
-3397 71 0
3397 -15 -71 0
-3398 16 0
-3398 72 0
3398 -16 -72 0
-3399 17 0
-3399 73 0
3399 -17 -73 0
-3400 18 0
-3400 74 0
3400 -18 -74 0
-3401 19 0
-3401 75 0
3401 -19 -75 0
-3402 20 0
-3402 76 0
3402 -20 -76 0
-3403 21 0
-3403 77 0
3403 -21 -77 0
-3404 22 0
-3404 78 0
3404 -22 -78 0
-3405 23 0
-3405 79 0
3405 -23 -79 0
-3406 24 0
-3406 80 0
3406 -24 -80 0
-3407 25 0
-3407 81 0
3407 -25 -81 0
-3408 26 0
-3408 82 0
3408 -26 -82 0
-3409 27 0
-3409 83 0
3409 -27 -83 0
-3410 28 0
-3410 84 0
3410 -28 -84 0
-3397 3411 0
-3411 3397 0
-3411 3412 0
-3398 3412 0
-3412 3411 3398 0
-3411 -3398 3413 0
-3413 3411 0
-3413 3398 0
-3412 3414 0
-3399 3414 0
-3414 3412 3399 0
-3413 3415 0
-3412 -3399 3415 0
-3415 3413 3412 0
-3415 3413 3399 0
-3413 -3399 3416 0
-3416 3413 0
-3416 3399 0
-3414 3417 0
-3400 3417 0
-3417 3414 3400 0
-3415 3418 0
-3414 -3400 3418 0
-3418 3415 3414 0
-3418 3415 3400 0
-3416 3419 0
-3415 -3400 3419 0
-3419 3416 3415 0
-3419 3416 3400 0
-3417 3420 0
-3401 3420 0
-3420 3417 3401 0
-3418 3421 0
-3417 -3401 3421 0
-3421 3418 3417 0
-3421 3418 3401 0
-3419 3422 0
-3418 -3401 3422 0
-3422 3419 3418 0
-3422 3419 3401 0
-3420 3423 0
-3402 3423 0
-3423 3420 3402 0
-3421 3424 0
-3420 -3402 3424 0
-3424 3421 3420 0
-3424 3421 3402 0
-3422 3425 0
-3421 -3402 3425 0
-3425 3422 3421 0
-3425 3422 3402 0
-3423 3426 0
-3403 3426 0
-3426 3423 3403 0
-3424 3427 0
-3423 -3403 3427 0
-3427 3424 3423 0
-3427 3424 3403 0
-3425 3428 0
-3424 -3403 3428 0
-3428 3425 3424 0
-3428 3425 3403 0
-3426 3429 0
-3404 3429 0
-3429 3426 3404 0
-3427 3430 0
-3426 -3404 3430 0
-3430 3427 3426 0
-3430 3427 3404 0
-3428 3431 0
-3427 -3404 3431 0
-3431 3428 3427 0
-3431 3428 3404 0
-3429 3432 0
-3405 3432 0
-3432 3429 3405 0
-3430 3433 0
-3429 -3405 3433 0
-3433 3430 3429 0
-3433 3430 3405 0
-3431 3434 0
-3430 -3405 3434 0
-3434 3431 3430 0
-3434 3431 3405 0
-3432 3435 0
-3406 3435 0
-3435 3432 3406 0
-3433 3436 0
-3432 -3406 3436 0
-3436 3433 3432 0
-3436 3433 3406 0
-3434 3437 0
-3433 -3406 3437 0
-3437 3434 3433 0
-3437 3434 3406 0
-3435 3438 0
-3407 3438 0
-3438 3435 3407 0
-3436 3439 0
-3435 -3407 3439 0
-3439 3436 3435 0
-3439 3436 3407 0
-3437 3440 0
-3436 -3407 3440 0
-3440 3437 3436 0
-3440 3437 3407 0
-3438 3441 0
-3408 3441 0
-3441 3438 3408 0
-3439 3442 0
-3438 -3408 3442 0
-3442 3439 3438 0
-3442 3439 3408 0
-3440 3443 0
-3439 -3408 3443 0
-3443 3440 3439 0
-3443 3440 3408 0
-3441 3444 0
-3409 3444 0
-3444 3441 3409 0
-3442 3445 0
-3441 -3409 3445 0
-3445 3442 3441 0
-3445 3442 3409 0
-3443 3446 0
-3442 -3409 3446 0
-3446 3443 3442 0
-3446 3443 3409 0
-3444 3447 0
-3410 3447 0
-3447 3444 3410 0
-3445 3448 0
-3444 -3410 3448 0
-3448 3445 3444 0
-3448 3445 3410 0
-3446 3449 0
-3445 -3410 3449 0
-3449 3446 3445 0
-3449 3446 3410 0
3449 0
-3450 15 0
-3450 85 0
3450 -15 -85 0
-3451 16 0
-3451 86 0
3451 -16 -86 0
-3452 17 0
-3452 87 0
3452 -17 -87 0
-3453 18 0
-3453 88 0
3453 -18 -88 0
-3454 19 0
-3454 89 0
3454 -19 -89 0
-3455 20 0
-3455 90 0
3455 -20 -90 0
-3456 21 0
-3456 91 0
3456 -21 -91 0
-3457 22 0
-3457 92 0
3457 -22 -92 0
-3458 23 0
-3458 93 0
3458 -23 -93 0
-3459 24 0
-3459 94 0
3459 -24 -94 0
-3460 25 0
-3460 95 0
3460 -25 -95 0
-3461 26 0
-3461 96 0
3461 -26 -96 0
-3462 27 0
-3462 97 0
3462 -27 -97 0
-3463 28 0
-3463 98 0
3463 -28 -98 0
-3450 3464 0
-3464 3450 0
-3464 3465 0
-3451 3465 0
-3465 3464 3451 0
-3464 -3451 3466 0
-3466 3464 0
-3466 3451 0
-3465 3467 0
-3452 3467 0
-3467 3465 3452 0
-3466 3468 0
-3465 -3452 3468 0
-3468 3466 3465 0
-3468 3466 3452 0
-3466 -3452 3469 0
-3469 3466 0
-3469 3452 0
-3467 3470 0
-3453 3470 0
-3470 3467 3453 0
-3468 3471 0
-3467 -3453 3471 0
-3471 3468 3467 0
-3471 3468 3453 0
-3469 3472 0
-3468 -3453 3472 0
-3472 3469 3468 0
-3472 3469 3453 0
-3470 3473 0
-3454 3473 0
-3473 3470 3454 0
-3471 3474 0
-3470 -3454 3474 0
-3474 3471 3470 0
-3474 3471 3454 0
-3472 3475 0
-3471 -3454 3475 0
-3475 3472 3471 0
-3475 3472 3454 0
-3473 3476 0
-3455 3476 0
-3476 3473 3455 0
-3474 3477 0
-3473 -3455 3477 0
-3477 3474 3473 0
-3477 3474 3455 0
-3475 3478 0
-3474 -3455 3478 0
-3478 3475 3474 0
-3478 3475 3455 0
-3476 3479 0
-3456 3479 0
-3479 3476 3456 0
-3477 3480 0
-3476 -3456 3480 0
-3480 3477 3476 0
-3480 3477 3456 0
-3478 3481 0
-3477 -3456 3481 0
-3481 3478 3477 0
-3481 3478 3456 0
-3479 3482 0
-3457 3482 0
-3482 3479 3457 0
-3480 3483 0
-3479 -3457 3483 0
-3483 3480 3479 0
-3483 3480 3457 0
-3481 3484 0
-3480 -3457 3484 0
-3484 3481 3480 0
-3484 3481 3457 0
-3482 3485 0
-3458 3485 0
-3485 3482 3458 0
-3483 3486 0
-3482 -3458 3486 0
-3486 3483 3482 0
-3486 3483 3458 0
-3484 3487 0
-3483 -3458 3487 0
-3487 3484 3483 0
-3487 3484 3458 0
-3485 3488 0
-3459 3488 0
-3488 3485 3459 0
-3486 3489 0
-3485 -3459 3489 0
-3489 3486 3485 0
-3489 3486 3459 0
-3487 3490 0
-3486 -3459 3490 0
-3490 3487 3486 0
-3490 3487 3459 0
-3488 3491 0
-3460 3491 0
-3491 3488 3460 0
-3489 3492 0
-3488 -3460 3492 0
-3492 3489 3488 0
-3492 3489 3460 0
-3490 3493 0
-3489 -3460 3493 0
-3493 3490 3489 0
-3493 3490 3460 0
-3491 3494 0
-3461 3494 0
-3494 3491 3461 0
-3492 3495 0
-3491 -3461 3495 0
-3495 3492 3491 0
-3495 3492 3461 0
-3493 3496 0
-3492 -3461 3496 0
-3496 3493 3492 0
-3496 3493 3461 0
-3494 3497 0
-3462 3497 0
-3497 3494 3462 0
-3495 3498 0
-3494 -3462 3498 0
-3498 3495 3494 0
-3498 3495 3462 0
-3496 3499 0
-3495 -3462 3499 0
-3499 3496 3495 0
-3499 3496 3462 0
-3497 3500 0
-3463 3500 0
-3500 3497 3463 0
-3498 3501 0
-3497 -3463 3501 0
-3501 3498 3497 0
-3501 3498 3463 0
-3499 3502 0
-3498 -3463 3502 0
-3502 3499 3498 0
-3502 3499 3463 0
3502 0
-3503 15 0
-3503 99 0
3503 -15 -99 0
-3504 16 0
-3504 100 0
3504 -16 -100 0
-3505 17 0
-3505 101 0
3505 -17 -101 0
-3506 18 0
-3506 102 0
3506 -18 -102 0
-3507 19 0
-3507 103 0
3507 -19 -103 0
-3508 20 0
-3508 104 0
3508 -20 -104 0
-3509 21 0
-3509 105 0
3509 -21 -105 0
-3510 22 0
-3510 106 0
3510 -22 -106 0
-3511 23 0
-3511 107 0
3511 -23 -107 0
-3512 24 0
-3512 108 0
3512 -24 -108 0
-3513 25 0
-3513 109 0
3513 -25 -109 0
-3514 26 0
-3514 110 0
3514 -26 -110 0
-3515 27 0
-3515 111 0
3515 -27 -111 0
-3516 28 0
-3516 112 0
3516 -28 -112 0
-3503 3517 0
-3517 3503 0
-3517 3518 0
-3504 3518 0
-3518 3517 3504 0
-3517 -3504 3519 0
-3519 3517 0
-3519 3504 0
-3518 3520 0
-3505 3520 0
-3520 3518 3505 0
-3519 3521 0
-3518 -3505 3521 0
-3521 3519 3518 0
-3521 3519 3505 0
-3519 -3505 3522 0
-3522 3519 0
-3522 3505 0
-3520 3523 0
-3506 3523 0
-3523 3520 3506 0
-3521 3524 0
-3520 -3506 3524 0
-3524 3521 3520 0
-3524 3521 3506 0
-3522 3525 0
-3521 -3506 3525 0
-3525 3522 3521 0
-3525 3522 3506 0
-3523 3526 0
-3507 3526 0
-3526 3523 3507 0
-3524 3527 0
-3523 -3507 3527 0
-3527 3524 3523 0
-3527 3524 3507 0
-3525 3528 0
-3524 -3507 3528 0
-3528 3525 3524 0
-3528 3525 3507 0
-3526 3529 0
-3508 3529 0
-3529 3526 3508 0
-3527 3530 0
-3526 -3508 3530 0
-3530 3527 3526 0
-3530 3527 3508 0
-3528 3531 0
-3527 -3508 3531 0
-3531 3528 3527 0
-3531 3528 3508 0
-3529 3532 0
-3509 3532 0
-3532 3529 3509 0
-3530 3533 0
-3529 -3509 3533 0
-3533 3530 3529 0
-3533 3530 3509 0
-3531 3534 0
-3530 -3509 3534 0
-3534 3531 3530 0
-3534 3531 3509 0
-3532 3535 0
-3510 3535 0
-3535 3532 3510 0
-3533 3536 0
-3532 -3510 3536 0
-3536 3533 3532 0
-3536 3533 3510 0
-3534 3537 0
-3533 -3510 3537 0
-3537 3534 3533 0
-3537 3534 3510 0
-3535 3538 0
-3511 3538 0
-3538 3535 3511 0
-3536 3539 0
-3535 -3511 3539 0
-3539 3536 3535 0
-3539 3536 3511 0
-3537 3540 0
-3536 -3511 3540 0
-3540 3537 3536 0
-3540 3537 3511 0
-3538 3541 0
-3512 3541 0
-3541 3538 3512 0
-3539 3542 0
-3538 -3512 3542 0
-3542 3539 3538 0
-3542 3539 3512 0
-3540 3543 0
-3539 -3512 3543 0
-3543 3540 3539 0
-3543 3540 3512 0
-3541 3544 0
-3513 3544 0
-3544 3541 3513 0
-3542 3545 0
-3541 -3513 3545 0
-3545 3542 3541 0
-3545 3542 3513 0
-3543 3546 0
-3542 -3513 3546 0
-3546 3543 3542 0
-3546 3543 3513 0
-3544 3547 0
-3514 3547 0
-3547 3544 3514 0
-3545 3548 0
-3544 -3514 3548 0
-3548 3545 3544 0
-3548 3545 3514 0
-3546 3549 0
-3545 -3514 3549 0
-3549 3546 3545 0
-3549 3546 3514 0
-3547 3550 0
-3515 3550 0
-3550 3547 3515 0
-3548 3551 0
-3547 -3515 3551 0
-3551 3548 3547 0
-3551 3548 3515 0
-3549 3552 0
-3548 -3515 3552 0
-3552 3549 3548 0
-3552 3549 3515 0
-3550 3553 0
-3516 3553 0
-3553 3550 3516 0
-3551 3554 0
-3550 -3516 3554 0
-3554 3551 3550 0
-3554 3551 3516 0
-3552 3555 0
-3551 -3516 3555 0
-3555 3552 3551 0
-3555 3552 3516 0
3555 0
-3556 15 0
-3556 113 0
3556 -15 -113 0
-3557 16 0
-3557 114 0
3557 -16 -114 0
-3558 17 0
-3558 115 0
3558 -17 -115 0
-3559 18 0
-3559 116 0
3559 -18 -116 0
-3560 19 0
-3560 117 0
3560 -19 -117 0
-3561 20 0
-3561 118 0
3561 -20 -118 0
-3562 21 0
-3562 119 0
3562 -21 -119 0
-3563 22 0
-3563 120 0
3563 -22 -120 0
-3564 23 0
-3564 121 0
3564 -23 -121 0
-3565 24 0
-3565 122 0
3565 -24 -122 0
-3566 25 0
-3566 123 0
3566 -25 -123 0
-3567 26 0
-3567 124 0
3567 -26 -124 0
-3568 27 0
-3568 125 0
3568 -27 -125 0
-3569 28 0
-3569 126 0
3569 -28 -126 0
-3556 3570 0
-3570 3556 0
-3570 3571 0
-3557 3571 0
-3571 3570 3557 0
-3570 -3557 3572 0
-3572 3570 0
-3572 3557 0
-3571 3573 0
-3558 3573 0
-3573 3571 3558 0
-3572 3574 0
-3571 -3558 3574 0
-3574 3572 3571 0
-3574 3572 3558 0
-3572 -3558 3575 0
-3575 3572 0
-3575 3558 0
-3573 3576 0
-3559 3576 0
-3576 3573 3559 0
-3574 3577 0
-3573 -3559 3577 0
-3577 3574 3573 0
-3577 3574 3559 0
-3575 3578 0
-3574 -3559 3578 0
-3578 3575 3574 0
-3578 3575 3559 0
-3576 3579 0
-3560 3579 0
-3579 3576 3560 0
-3577 3580 0
-3576 -3560 3580 0
-3580 3577 3576 0
-3580 3577 3560 0
-3578 3581 0
-3577 -3560 3581 0
-3581 3578 3577 0
-3581 3578 3560 0
-3579 3582 0
-3561 3582 0
-3582 3579 3561 0
-3580 3583 0
-3579 -3561 3583 0
-3583 3580 3579 0
-3583 3580 3561 0
-3581 3584 0
-3580 -3561 3584 0
-3584 3581 3580 0
-3584 3581 3561 0
-3582 3585 0
-3562 3585 0
-3585 3582 3562 0
-3583 3586 0
-3582 -3562 3586 0
-3586 3583 3582 0
-3586 3583 3562 0
-3584 3587 0
-3583 -3562 3587 0
-3587 3584 3583 0
-3587 3584 3562 0
-3585 3588 0
-3563 3588 0
-3588 3585 3563 0
-3586 3589 0
-3585 -3563 3589 0
-3589 3586 3585 0
-3589 3586 3563 0
-3587 3590 0
-3586 -3563 3590 0
-3590 3587 3586 0
-3590 3587 3563 0
-3588 3591 0
-3564 3591 0
-3591 3588 3564 0
-3589 3592 0
-3588 -3564 3592 0
-3592 3589 3588 0
-3592 3589 3564 0
-3590 3593 0
-3589 -3564 3593 0
-3593 3590 3589 0
-3593 3590 3564 0
-3591 3594 0
-3565 3594 0
-3594 3591 3565 0
-3592 3595 0
-3591 -3565 3595 0
-3595 3592 3591 0
-3595 3592 3565 0
-3593 3596 0
-3592 -3565 3596 0
-3596 3593 3592 0
-3596 3593 3565 0
-3594 3597 0
-3566 3597 0
-3597 3594 3566 0
-3595 3598 0
-3594 -3566 3598 0
-3598 3595 3594 0
-3598 3595 3566 0
-3596 3599 0
-3595 -3566 3599 0
-3599 3596 3595 0
-3599 3596 3566 0
-3597 3600 0
-3567 3600 0
-3600 3597 3567 0
-3598 3601 0
-3597 -3567 3601 0
-3601 3598 3597 0
-3601 3598 3567 0
-3599 3602 0
-3598 -3567 3602 0
-3602 3599 3598 0
-3602 3599 3567 0
-3600 3603 0
-3568 3603 0
-3603 3600 3568 0
-3601 3604 0
-3600 -3568 3604 0
-3604 3601 3600 0
-3604 3601 3568 0
-3602 3605 0
-3601 -3568 3605 0
-3605 3602 3601 0
-3605 3602 3568 0
-3603 3606 0
-3569 3606 0
-3606 3603 3569 0
-3604 3607 0
-3603 -3569 3607 0
-3607 3604 3603 0
-3607 3604 3569 0
-3605 3608 0
-3604 -3569 3608 0
-3608 3605 3604 0
-3608 3605 3569 0
3608 0
-3609 15 0
-3609 127 0
3609 -15 -127 0
-3610 16 0
-3610 128 0
3610 -16 -128 0
-3611 17 0
-3611 129 0
3611 -17 -129 0
-3612 18 0
-3612 130 0
3612 -18 -130 0
-3613 19 0
-3613 131 0
3613 -19 -131 0
-3614 20 0
-3614 132 0
3614 -20 -132 0
-3615 21 0
-3615 133 0
3615 -21 -133 0
-3616 22 0
-3616 134 0
3616 -22 -134 0
-3617 23 0
-3617 135 0
3617 -23 -135 0
-3618 24 0
-3618 136 0
3618 -24 -136 0
-3619 25 0
-3619 137 0
3619 -25 -137 0
-3620 26 0
-3620 138 0
3620 -26 -138 0
-3621 27 0
-3621 139 0
3621 -27 -139 0
-3622 28 0
-3622 140 0
3622 -28 -140 0
-3609 3623 0
-3623 3609 0
-3623 3624 0
-3610 3624 0
-3624 3623 3610 0
-3623 -3610 3625 0
-3625 3623 0
-3625 3610 0
-3624 3626 0
-3611 3626 0
-3626 3624 3611 0
-3625 3627 0
-3624 -3611 3627 0
-3627 3625 3624 0
-3627 3625 3611 0
-3625 -3611 3628 0
-3628 3625 0
-3628 3611 0
-3626 3629 0
-3612 3629 0
-3629 3626 3612 0
-3627 3630 0
-3626 -3612 3630 0
-3630 3627 3626 0
-3630 3627 3612 0
-3628 3631 0
-3627 -3612 3631 0
-3631 3628 3627 0
-3631 3628 3612 0
-3629 3632 0
-3613 3632 0
-3632 3629 3613 0
-3630 3633 0
-3629 -3613 3633 0
-3633 3630 3629 0
-3633 3630 3613 0
-3631 3634 0
-3630 -3613 3634 0
-3634 3631 3630 0
-3634 3631 3613 0
-3632 3635 0
-3614 3635 0
-3635 3632 3614 0
-3633 3636 0
-3632 -3614 3636 0
-3636 3633 3632 0
-3636 3633 3614 0
-3634 3637 0
-3633 -3614 3637 0
-3637 3634 3633 0
-3637 3634 3614 0
-3635 3638 0
-3615 3638 0
-3638 3635 3615 0
-3636 3639 0
-3635 -3615 3639 0
-3639 3636 3635 0
-3639 3636 3615 0
-3637 3640 0
-3636 -3615 3640 0
-3640 3637 3636 0
-3640 3637 3615 0
-3638 3641 0
-3616 3641 0
-3641 3638 3616 0
-3639 3642 0
-3638 -3616 3642 0
-3642 3639 3638 0
-3642 3639 3616 0
-3640 3643 0
-3639 -3616 3643 0
-3643 3640 3639 0
-3643 3640 3616 0
-3641 3644 0
-3617 3644 0
-3644 3641 3617 0
-3642 3645 0
-3641 -3617 3645 0
-3645 3642 3641 0
-3645 3642 3617 0
-3643 3646 0
-3642 -3617 3646 0
-3646 3643 3642 0
-3646 3643 3617 0
-3644 3647 0
-3618 3647 0
-3647 3644 3618 0
-3645 3648 0
-3644 -3618 3648 0
-3648 3645 3644 0
-3648 3645 3618 0
-3646 3649 0
-3645 -3618 3649 0
-3649 3646 3645 0
-3649 3646 3618 0
-3647 3650 0
-3619 3650 0
-3650 3647 3619 0
-3648 3651 0
-3647 -3619 3651 0
-3651 3648 3647 0
-3651 3648 3619 0
-3649 3652 0
-3648 -3619 3652 0
-3652 3649 3648 0
-3652 3649 3619 0
-3650 3653 0
-3620 3653 0
-3653 3650 3620 0
-3651 3654 0
-3650 -3620 3654 0
-3654 3651 3650 0
-3654 3651 3620 0
-3652 3655 0
-3651 -3620 3655 0
-3655 3652 3651 0
-3655 3652 3620 0
-3653 3656 0
-3621 3656 0
-3656 3653 3621 0
-3654 3657 0
-3653 -3621 3657 0
-3657 3654 3653 0
-3657 3654 3621 0
-3655 3658 0
-3654 -3621 3658 0
-3658 3655 3654 0
-3658 3655 3621 0
-3656 3659 0
-3622 3659 0
-3659 3656 3622 0
-3657 3660 0
-3656 -3622 3660 0
-3660 3657 3656 0
-3660 3657 3622 0
-3658 3661 0
-3657 -3622 3661 0
-3661 3658 3657 0
-3661 3658 3622 0
3661 0
-3662 15 0
-3662 141 0
3662 -15 -141 0
-3663 16 0
-3663 142 0
3663 -16 -142 0
-3664 17 0
-3664 143 0
3664 -17 -143 0
-3665 18 0
-3665 144 0
3665 -18 -144 0
-3666 19 0
-3666 145 0
3666 -19 -145 0
-3667 20 0
-3667 146 0
3667 -20 -146 0
-3668 21 0
-3668 147 0
3668 -21 -147 0
-3669 22 0
-3669 148 0
3669 -22 -148 0
-3670 23 0
-3670 149 0
3670 -23 -149 0
-3671 24 0
-3671 150 0
3671 -24 -150 0
-3672 25 0
-3672 151 0
3672 -25 -151 0
-3673 26 0
-3673 152 0
3673 -26 -152 0
-3674 27 0
-3674 153 0
3674 -27 -153 0
-3675 28 0
-3675 154 0
3675 -28 -154 0
-3662 3676 0
-3676 3662 0
-3676 3677 0
-3663 3677 0
-3677 3676 3663 0
-3676 -3663 3678 0
-3678 3676 0
-3678 3663 0
-3677 3679 0
-3664 3679 0
-3679 3677 3664 0
-3678 3680 0
-3677 -3664 3680 0
-3680 3678 3677 0
-3680 3678 3664 0
-3678 -3664 3681 0
-3681 3678 0
-3681 3664 0
-3679 3682 0
-3665 3682 0
-3682 3679 3665 0
-3680 3683 0
-3679 -3665 3683 0
-3683 3680 3679 0
-3683 3680 3665 0
-3681 3684 0
-3680 -3665 3684 0
-3684 3681 3680 0
-3684 3681 3665 0
-3682 3685 0
-3666 3685 0
-3685 3682 3666 0
-3683 3686 0
-3682 -3666 3686 0
-3686 3683 3682 0
-3686 3683 3666 0
-3684 3687 0
-3683 -3666 3687 0
-3687 3684 3683 0
-3687 3684 3666 0
-3685 3688 0
-3667 3688 0
-3688 3685 3667 0
-3686 3689 0
-3685 -3667 3689 0
-3689 3686 3685 0
-3689 3686 3667 0
-3687 3690 0
-3686 -3667 3690 0
-3690 3687 3686 0
-3690 3687 3667 0
-3688 3691 0
-3668 3691 0
-3691 3688 3668 0
-3689 3692 0
-3688 -3668 3692 0
-3692 3689 3688 0
-3692 3689 3668 0
-3690 3693 0
-3689 -3668 3693 0
-3693 3690 3689 0
-3693 3690 3668 0
-3691 3694 0
-3669 3694 0
-3694 3691 3669 0
-3692 3695 0
-3691 -3669 3695 0
-3695 3692 3691 0
-3695 3692 3669 0
-3693 3696 0
-3692 -3669 3696 0
-3696 3693 3692 0
-3696 3693 3669 0
-3694 3697 0
-3670 3697 0
-3697 3694 3670 0
-3695 3698 0
-3694 -3670 3698 0
-3698 3695 3694 0
-3698 3695 3670 0
-3696 3699 0
-3695 -3670 3699 0
-3699 3696 3695 0
-3699 3696 3670 0
-3697 3700 0
-3671 3700 0
-3700 3697 3671 0
-3698 3701 0
-3697 -3671 3701 0
-3701 3698 3697 0
-3701 3698 3671 0
-3699 3702 0
-3698 -3671 3702 0
-3702 3699 3698 0
-3702 3699 3671 0
-3700 3703 0
-3672 3703 0
-3703 3700 3672 0
-3701 3704 0
-3700 -3672 3704 0
-3704 3701 3700 0
-3704 3701 3672 0
-3702 3705 0
-3701 -3672 3705 0
-3705 3702 3701 0
-3705 3702 3672 0
-3703 3706 0
-3673 3706 0
-3706 3703 3673 0
-3704 3707 0
-3703 -3673 3707 0
-3707 3704 3703 0
-3707 3704 3673 0
-3705 3708 0
-3704 -3673 3708 0
-3708 3705 3704 0
-3708 3705 3673 0
-3706 3709 0
-3674 3709 0
-3709 3706 3674 0
-3707 3710 0
-3706 -3674 3710 0
-3710 3707 3706 0
-3710 3707 3674 0
-3708 3711 0
-3707 -3674 3711 0
-3711 3708 3707 0
-3711 3708 3674 0
-3709 3712 0
-3675 3712 0
-3712 3709 3675 0
-3710 3713 0
-3709 -3675 3713 0
-3713 3710 3709 0
-3713 3710 3675 0
-3711 3714 0
-3710 -3675 3714 0
-3714 3711 3710 0
-3714 3711 3675 0
3714 0
-3715 15 0
-3715 155 0
3715 -15 -155 0
-3716 16 0
-3716 156 0
3716 -16 -156 0
-3717 17 0
-3717 157 0
3717 -17 -157 0
-3718 18 0
-3718 158 0
3718 -18 -158 0
-3719 19 0
-3719 159 0
3719 -19 -159 0
-3720 20 0
-3720 160 0
3720 -20 -160 0
-3721 21 0
-3721 161 0
3721 -21 -161 0
-3722 22 0
-3722 162 0
3722 -22 -162 0
-3723 23 0
-3723 163 0
3723 -23 -163 0
-3724 24 0
-3724 164 0
3724 -24 -164 0
-3725 25 0
-3725 165 0
3725 -25 -165 0
-3726 26 0
-3726 166 0
3726 -26 -166 0
-3727 27 0
-3727 167 0
3727 -27 -167 0
-3728 28 0
-3728 168 0
3728 -28 -168 0
-3715 3729 0
-3729 3715 0
-3729 3730 0
-3716 3730 0
-3730 3729 3716 0
-3729 -3716 3731 0
-3731 3729 0
-3731 3716 0
-3730 3732 0
-3717 3732 0
-3732 3730 3717 0
-3731 3733 0
-3730 -3717 3733 0
-3733 3731 3730 0
-3733 3731 3717 0
-3731 -3717 3734 0
-3734 3731 0
-3734 3717 0
-3732 3735 0
-3718 3735 0
-3735 3732 3718 0
-3733 3736 0
-3732 -3718 3736 0
-3736 3733 3732 0
-3736 3733 3718 0
-3734 3737 0
-3733 -3718 3737 0
-3737 3734 3733 0
-3737 3734 3718 0
-3735 3738 0
-3719 3738 0
-3738 3735 3719 0
-3736 3739 0
-3735 -3719 3739 0
-3739 3736 3735 0
-3739 3736 3719 0
-3737 3740 0
-3736 -3719 3740 0
-3740 3737 3736 0
-3740 3737 3719 0
-3738 3741 0
-3720 3741 0
-3741 3738 3720 0
-3739 3742 0
-3738 -3720 3742 0
-3742 3739 3738 0
-3742 3739 3720 0
-3740 3743 0
-3739 -3720 3743 0
-3743 3740 3739 0
-3743 3740 3720 0
-3741 3744 0
-3721 3744 0
-3744 3741 3721 0
-3742 3745 0
-3741 -3721 3745 0
-3745 3742 3741 0
-3745 3742 3721 0
-3743 3746 0
-3742 -3721 3746 0
-3746 3743 3742 0
-3746 3743 3721 0
-3744 3747 0
-3722 3747 0
-3747 3744 3722 0
-3745 3748 0
-3744 -3722 3748 0
-3748 3745 3744 0
-3748 3745 3722 0
-3746 3749 0
-3745 -3722 3749 0
-3749 3746 3745 0
-3749 3746 3722 0
-3747 3750 0
-3723 3750 0
-3750 3747 3723 0
-3748 3751 0
-3747 -3723 3751 0
-3751 3748 3747 0
-3751 3748 3723 0
-3749 3752 0
-3748 -3723 3752 0
-3752 3749 3748 0
-3752 3749 3723 0
-3750 3753 0
-3724 3753 0
-3753 3750 3724 0
-3751 3754 0
-3750 -3724 3754 0
-3754 3751 3750 0
-3754 3751 3724 0
-3752 3755 0
-3751 -3724 3755 0
-3755 3752 3751 0
-3755 3752 3724 0
-3753 3756 0
-3725 3756 0
-3756 3753 3725 0
-3754 3757 0
-3753 -3725 3757 0
-3757 3754 3753 0
-3757 3754 3725 0
-3755 3758 0
-3754 -3725 3758 0
-3758 3755 3754 0
-3758 3755 3725 0
-3756 3759 0
-3726 3759 0
-3759 3756 3726 0
-3757 3760 0
-3756 -3726 3760 0
-3760 3757 3756 0
-3760 3757 3726 0
-3758 3761 0
-3757 -3726 3761 0
-3761 3758 3757 0
-3761 3758 3726 0
-3759 3762 0
-3727 3762 0
-3762 3759 3727 0
-3760 3763 0
-3759 -3727 3763 0
-3763 3760 3759 0
-3763 3760 3727 0
-3761 3764 0
-3760 -3727 3764 0
-3764 3761 3760 0
-3764 3761 3727 0
-3762 3765 0
-3728 3765 0
-3765 3762 3728 0
-3763 3766 0
-3762 -3728 3766 0
-3766 3763 3762 0
-3766 3763 3728 0
-3764 3767 0
-3763 -3728 3767 0
-3767 3764 3763 0
-3767 3764 3728 0
3767 0
-3768 15 0
-3768 169 0
3768 -15 -169 0
-3769 16 0
-3769 170 0
3769 -16 -170 0
-3770 17 0
-3770 171 0
3770 -17 -171 0
-3771 18 0
-3771 172 0
3771 -18 -172 0
-3772 19 0
-3772 173 0
3772 -19 -173 0
-3773 20 0
-3773 174 0
3773 -20 -174 0
-3774 21 0
-3774 175 0
3774 -21 -175 0
-3775 22 0
-3775 176 0
3775 -22 -176 0
-3776 23 0
-3776 177 0
3776 -23 -177 0
-3777 24 0
-3777 178 0
3777 -24 -178 0
-3778 25 0
-3778 179 0
3778 -25 -179 0
-3779 26 0
-3779 180 0
3779 -26 -180 0
-3780 27 0
-3780 181 0
3780 -27 -181 0
-3781 28 0
-3781 182 0
3781 -28 -182 0
-3768 3782 0
-3782 3768 0
-3782 3783 0
-3769 3783 0
-3783 3782 3769 0
-3782 -3769 3784 0
-3784 3782 0
-3784 3769 0
-3783 3785 0
-3770 3785 0
-3785 3783 3770 0
-3784 3786 0
-3783 -3770 3786 0
-3786 3784 3783 0
-3786 3784 3770 0
-3784 -3770 3787 0
-3787 3784 0
-3787 3770 0
-3785 3788 0
-3771 3788 0
-3788 3785 3771 0
-3786 3789 0
-3785 -3771 3789 0
-3789 3786 3785 0
-3789 3786 3771 0
-3787 3790 0
-3786 -3771 3790 0
-3790 3787 3786 0
-3790 3787 3771 0
-3788 3791 0
-3772 3791 0
-3791 3788 3772 0
-3789 3792 0
-3788 -3772 3792 0
-3792 3789 3788 0
-3792 3789 3772 0
-3790 3793 0
-3789 -3772 3793 0
-3793 3790 3789 0
-3793 3790 3772 0
-3791 3794 0
-3773 3794 0
-3794 3791 3773 0
-3792 3795 0
-3791 -3773 3795 0
-3795 3792 3791 0
-3795 3792 3773 0
-3793 3796 0
-3792 -3773 3796 0
-3796 3793 3792 0
-3796 3793 3773 0
-3794 3797 0
-3774 3797 0
-3797 3794 3774 0
-3795 3798 0
-3794 -3774 3798 0
-3798 3795 3794 0
-3798 3795 3774 0
-3796 3799 0
-3795 -3774 3799 0
-3799 3796 3795 0
-3799 3796 3774 0
-3797 3800 0
-3775 3800 0
-3800 3797 3775 0
-3798 3801 0
-3797 -3775 3801 0
-3801 3798 3797 0
-3801 3798 3775 0
-3799 3802 0
-3798 -3775 3802 0
-3802 3799 3798 0
-3802 3799 3775 0
-3800 3803 0
-3776 3803 0
-3803 3800 3776 0
-3801 3804 0
-3800 -3776 3804 0
-3804 3801 3800 0
-3804 3801 3776 0
-3802 3805 0
-3801 -3776 3805 0
-3805 3802 3801 0
-3805 3802 3776 0
-3803 3806 0
-3777 3806 0
-3806 3803 3777 0
-3804 3807 0
-3803 -3777 3807 0
-3807 3804 3803 0
-3807 3804 3777 0
-3805 3808 0
-3804 -3777 3808 0
-3808 3805 3804 0
-3808 3805 3777 0
-3806 3809 0
-3778 3809 0
-3809 3806 3778 0
-3807 3810 0
-3806 -3778 3810 0
-3810 3807 3806 0
-3810 3807 3778 0
-3808 3811 0
-3807 -3778 3811 0
-3811 3808 3807 0
-3811 3808 3778 0
-3809 3812 0
-3779 3812 0
-3812 3809 3779 0
-3810 3813 0
-3809 -3779 3813 0
-3813 3810 3809 0
-3813 3810 3779 0
-3811 3814 0
-3810 -3779 3814 0
-3814 3811 3810 0
-3814 3811 3779 0
-3812 3815 0
-3780 3815 0
-3815 3812 3780 0
-3813 3816 0
-3812 -3780 3816 0
-3816 3813 3812 0
-3816 3813 3780 0
-3814 3817 0
-3813 -3780 3817 0
-3817 3814 3813 0
-3817 3814 3780 0
-3815 3818 0
-3781 3818 0
-3818 3815 3781 0
-3816 3819 0
-3815 -3781 3819 0
-3819 3816 3815 0
-3819 3816 3781 0
-3817 3820 0
-3816 -3781 3820 0
-3820 3817 3816 0
-3820 3817 3781 0
3820 0
-3821 15 0
-3821 183 0
3821 -15 -183 0
-3822 16 0
-3822 184 0
3822 -16 -184 0
-3823 17 0
-3823 185 0
3823 -17 -185 0
-3824 18 0
-3824 186 0
3824 -18 -186 0
-3825 19 0
-3825 187 0
3825 -19 -187 0
-3826 20 0
-3826 188 0
3826 -20 -188 0
-3827 21 0
-3827 189 0
3827 -21 -189 0
-3828 22 0
-3828 190 0
3828 -22 -190 0
-3829 23 0
-3829 191 0
3829 -23 -191 0
-3830 24 0
-3830 192 0
3830 -24 -192 0
-3831 25 0
-3831 193 0
3831 -25 -193 0
-3832 26 0
-3832 194 0
3832 -26 -194 0
-3833 27 0
-3833 195 0
3833 -27 -195 0
-3834 28 0
-3834 196 0
3834 -28 -196 0
-3821 3835 0
-3835 3821 0
-3835 3836 0
-3822 3836 0
-3836 3835 3822 0
-3835 -3822 3837 0
-3837 3835 0
-3837 3822 0
-3836 3838 0
-3823 3838 0
-3838 3836 3823 0
-3837 3839 0
-3836 -3823 3839 0
-3839 3837 3836 0
-3839 3837 3823 0
-3837 -3823 3840 0
-3840 3837 0
-3840 3823 0
-3838 3841 0
-3824 3841 0
-3841 3838 3824 0
-3839 3842 0
-3838 -3824 3842 0
-3842 3839 3838 0
-3842 3839 3824 0
-3840 3843 0
-3839 -3824 3843 0
-3843 3840 3839 0
-3843 3840 3824 0
-3841 3844 0
-3825 3844 0
-3844 3841 3825 0
-3842 3845 0
-3841 -3825 3845 0
-3845 3842 3841 0
-3845 3842 3825 0
-3843 3846 0
-3842 -3825 3846 0
-3846 3843 3842 0
-3846 3843 3825 0
-3844 3847 0
-3826 3847 0
-3847 3844 3826 0
-3845 3848 0
-3844 -3826 3848 0
-3848 3845 3844 0
-3848 3845 3826 0
-3846 3849 0
-3845 -3826 3849 0
-3849 3846 3845 0
-3849 3846 3826 0
-3847 3850 0
-3827 3850 0
-3850 3847 3827 0
-3848 3851 0
-3847 -3827 3851 0
-3851 3848 3847 0
-3851 3848 3827 0
-3849 3852 0
-3848 -3827 3852 0
-3852 3849 3848 0
-3852 3849 3827 0
-3850 3853 0
-3828 3853 0
-3853 3850 3828 0
-3851 3854 0
-3850 -3828 3854 0
-3854 3851 3850 0
-3854 3851 3828 0
-3852 3855 0
-3851 -3828 3855 0
-3855 3852 3851 0
-3855 3852 3828 0
-3853 3856 0
-3829 3856 0
-3856 3853 3829 0
-3854 3857 0
-3853 -3829 3857 0
-3857 3854 3853 0
-3857 3854 3829 0
-3855 3858 0
-3854 -3829 3858 0
-3858 3855 3854 0
-3858 3855 3829 0
-3856 3859 0
-3830 3859 0
-3859 3856 3830 0
-3857 3860 0
-3856 -3830 3860 0
-3860 3857 3856 0
-3860 3857 3830 0
-3858 3861 0
-3857 -3830 3861 0
-3861 3858 3857 0
-3861 3858 3830 0
-3859 3862 0
-3831 3862 0
-3862 3859 3831 0
-3860 3863 0
-3859 -3831 3863 0
-3863 3860 3859 0
-3863 3860 3831 0
-3861 3864 0
-3860 -3831 3864 0
-3864 3861 3860 0
-3864 3861 3831 0
-3862 3865 0
-3832 3865 0
-3865 3862 3832 0
-3863 3866 0
-3862 -3832 3866 0
-3866 3863 3862 0
-3866 3863 3832 0
-3864 3867 0
-3863 -3832 3867 0
-3867 3864 3863 0
-3867 3864 3832 0
-3865 3868 0
-3833 3868 0
-3868 3865 3833 0
-3866 3869 0
-3865 -3833 3869 0
-3869 3866 3865 0
-3869 3866 3833 0
-3867 3870 0
-3866 -3833 3870 0
-3870 3867 3866 0
-3870 3867 3833 0
-3868 3871 0
-3834 3871 0
-3871 3868 3834 0
-3869 3872 0
-3868 -3834 3872 0
-3872 3869 3868 0
-3872 3869 3834 0
-3870 3873 0
-3869 -3834 3873 0
-3873 3870 3869 0
-3873 3870 3834 0
3873 0
-3874 29 0
-3874 43 0
3874 -29 -43 0
-3875 30 0
-3875 44 0
3875 -30 -44 0
-3876 31 0
-3876 45 0
3876 -31 -45 0
-3877 32 0
-3877 46 0
3877 -32 -46 0
-3878 33 0
-3878 47 0
3878 -33 -47 0
-3879 34 0
-3879 48 0
3879 -34 -48 0
-3880 35 0
-3880 49 0
3880 -35 -49 0
-3881 36 0
-3881 50 0
3881 -36 -50 0
-3882 37 0
-3882 51 0
3882 -37 -51 0
-3883 38 0
-3883 52 0
3883 -38 -52 0
-3884 39 0
-3884 53 0
3884 -39 -53 0
-3885 40 0
-3885 54 0
3885 -40 -54 0
-3886 41 0
-3886 55 0
3886 -41 -55 0
-3887 42 0
-3887 56 0
3887 -42 -56 0
-3874 3888 0
-3888 3874 0
-3888 3889 0
-3875 3889 0
-3889 3888 3875 0
-3888 -3875 3890 0
-3890 3888 0
-3890 3875 0
-3889 3891 0
-3876 3891 0
-3891 3889 3876 0
-3890 3892 0
-3889 -3876 3892 0
-3892 3890 3889 0
-3892 3890 3876 0
-3890 -3876 3893 0
-3893 3890 0
-3893 3876 0
-3891 3894 0
-3877 3894 0
-3894 3891 3877 0
-3892 3895 0
-3891 -3877 3895 0
-3895 3892 3891 0
-3895 3892 3877 0
-3893 3896 0
-3892 -3877 3896 0
-3896 3893 3892 0
-3896 3893 3877 0
-3894 3897 0
-3878 3897 0
-3897 3894 3878 0
-3895 3898 0
-3894 -3878 3898 0
-3898 3895 3894 0
-3898 3895 3878 0
-3896 3899 0
-3895 -3878 3899 0
-3899 3896 3895 0
-3899 3896 3878 0
-3897 3900 0
-3879 3900 0
-3900 3897 3879 0
-3898 3901 0
-3897 -3879 3901 0
-3901 3898 3897 0
-3901 3898 3879 0
-3899 3902 0
-3898 -3879 3902 0
-3902 3899 3898 0
-3902 3899 3879 0
-3900 3903 0
-3880 3903 0
-3903 3900 3880 0
-3901 3904 0
-3900 -3880 3904 0
-3904 3901 3900 0
-3904 3901 3880 0
-3902 3905 0
-3901 -3880 3905 0
-3905 3902 3901 0
-3905 3902 3880 0
-3903 3906 0
-3881 3906 0
-3906 3903 3881 0
-3904 3907 0
-3903 -3881 3907 0
-3907 3904 3903 0
-3907 3904 3881 0
-3905 3908 0
-3904 -3881 3908 0
-3908 3905 3904 0
-3908 3905 3881 0
-3906 3909 0
-3882 3909 0
-3909 3906 3882 0
-3907 3910 0
-3906 -3882 3910 0
-3910 3907 3906 0
-3910 3907 3882 0
-3908 3911 0
-3907 -3882 3911 0
-3911 3908 3907 0
-3911 3908 3882 0
-3909 3912 0
-3883 3912 0
-3912 3909 3883 0
-3910 3913 0
-3909 -3883 3913 0
-3913 3910 3909 0
-3913 3910 3883 0
-3911 3914 0
-3910 -3883 3914 0
-3914 3911 3910 0
-3914 3911 3883 0
-3912 3915 0
-3884 3915 0
-3915 3912 3884 0
-3913 3916 0
-3912 -3884 3916 0
-3916 3913 3912 0
-3916 3913 3884 0
-3914 3917 0
-3913 -3884 3917 0
-3917 3914 3913 0
-3917 3914 3884 0
-3915 3918 0
-3885 3918 0
-3918 3915 3885 0
-3916 3919 0
-3915 -3885 3919 0
-3919 3916 3915 0
-3919 3916 3885 0
-3917 3920 0
-3916 -3885 3920 0
-3920 3917 3916 0
-3920 3917 3885 0
-3918 3921 0
-3886 3921 0
-3921 3918 3886 0
-3919 3922 0
-3918 -3886 3922 0
-3922 3919 3918 0
-3922 3919 3886 0
-3920 3923 0
-3919 -3886 3923 0
-3923 3920 3919 0
-3923 3920 3886 0
-3921 3924 0
-3887 3924 0
-3924 3921 3887 0
-3922 3925 0
-3921 -3887 3925 0
-3925 3922 3921 0
-3925 3922 3887 0
-3923 3926 0
-3922 -3887 3926 0
-3926 3923 3922 0
-3926 3923 3887 0
3926 0
-3927 29 0
-3927 57 0
3927 -29 -57 0
-3928 30 0
-3928 58 0
3928 -30 -58 0
-3929 31 0
-3929 59 0
3929 -31 -59 0
-3930 32 0
-3930 60 0
3930 -32 -60 0
-3931 33 0
-3931 61 0
3931 -33 -61 0
-3932 34 0
-3932 62 0
3932 -34 -62 0
-3933 35 0
-3933 63 0
3933 -35 -63 0
-3934 36 0
-3934 64 0
3934 -36 -64 0
-3935 37 0
-3935 65 0
3935 -37 -65 0
-3936 38 0
-3936 66 0
3936 -38 -66 0
-3937 39 0
-3937 67 0
3937 -39 -67 0
-3938 40 0
-3938 68 0
3938 -40 -68 0
-3939 41 0
-3939 69 0
3939 -41 -69 0
-3940 42 0
-3940 70 0
3940 -42 -70 0
-3927 3941 0
-3941 3927 0
-3941 3942 0
-3928 3942 0
-3942 3941 3928 0
-3941 -3928 3943 0
-3943 3941 0
-3943 3928 0
-3942 3944 0
-3929 3944 0
-3944 3942 3929 0
-3943 3945 0
-3942 -3929 3945 0
-3945 3943 3942 0
-3945 3943 3929 0
-3943 -3929 3946 0
-3946 3943 0
-3946 3929 0
-3944 3947 0
-3930 3947 0
-3947 3944 3930 0
-3945 3948 0
-3944 -3930 3948 0
-3948 3945 3944 0
-3948 3945 3930 0
-3946 3949 0
-3945 -3930 3949 0
-3949 3946 3945 0
-3949 3946 3930 0
-3947 3950 0
-3931 3950 0
-3950 3947 3931 0
-3948 3951 0
-3947 -3931 3951 0
-3951 3948 3947 0
-3951 3948 3931 0
-3949 3952 0
-3948 -3931 3952 0
-3952 3949 3948 0
-3952 3949 3931 0
-3950 3953 0
-3932 3953 0
-3953 3950 3932 0
-3951 3954 0
-3950 -3932 3954 0
-3954 3951 3950 0
-3954 3951 3932 0
-3952 3955 0
-3951 -3932 3955 0
-3955 3952 3951 0
-3955 3952 3932 0
-3953 3956 0
-3933 3956 0
-3956 3953 3933 0
-3954 3957 0
-3953 -3933 3957 0
-3957 3954 3953 0
-3957 3954 3933 0
-3955 3958 0
-3954 -3933 3958 0
-3958 3955 3954 0
-3958 3955 3933 0
-3956 3959 0
-3934 3959 0
-3959 3956 3934 0
-3957 3960 0
-3956 -3934 3960 0
-3960 3957 3956 0
-3960 3957 3934 0
-3958 3961 0
-3957 -3934 3961 0
-3961 3958 3957 0
-3961 3958 3934 0
-3959 3962 0
-3935 3962 0
-3962 3959 3935 0
-3960 3963 0
-3959 -3935 3963 0
-3963 3960 3959 0
-3963 3960 3935 0
-3961 3964 0
-3960 -3935 3964 0
-3964 3961 3960 0
-3964 3961 3935 0
-3962 3965 0
-3936 3965 0
-3965 3962 3936 0
-3963 3966 0
-3962 -3936 3966 0
-3966 3963 3962 0
-3966 3963 3936 0
-3964 3967 0
-3963 -3936 3967 0
-3967 3964 3963 0
-3967 3964 3936 0
-3965 3968 0
-3937 3968 0
-3968 3965 3937 0
-3966 3969 0
-3965 -3937 3969 0
-3969 3966 3965 0
-3969 3966 3937 0
-3967 3970 0
-3966 -3937 3970 0
-3970 3967 3966 0
-3970 3967 3937 0
-3968 3971 0
-3938 3971 0
-3971 3968 3938 0
-3969 3972 0
-3968 -3938 3972 0
-3972 3969 3968 0
-3972 3969 3938 0
-3970 3973 0
-3969 -3938 3973 0
-3973 3970 3969 0
-3973 3970 3938 0
-3971 3974 0
-3939 3974 0
-3974 3971 3939 0
-3972 3975 0
-3971 -3939 3975 0
-3975 3972 3971 0
-3975 3972 3939 0
-3973 3976 0
-3972 -3939 3976 0
-3976 3973 3972 0
-3976 3973 3939 0
-3974 3977 0
-3940 3977 0
-3977 3974 3940 0
-3975 3978 0
-3974 -3940 3978 0
-3978 3975 3974 0
-3978 3975 3940 0
-3976 3979 0
-3975 -3940 3979 0
-3979 3976 3975 0
-3979 3976 3940 0
3979 0
-3980 29 0
-3980 71 0
3980 -29 -71 0
-3981 30 0
-3981 72 0
3981 -30 -72 0
-3982 31 0
-3982 73 0
3982 -31 -73 0
-3983 32 0
-3983 74 0
3983 -32 -74 0
-3984 33 0
-3984 75 0
3984 -33 -75 0
-3985 34 0
-3985 76 0
3985 -34 -76 0
-3986 35 0
-3986 77 0
3986 -35 -77 0
-3987 36 0
-3987 78 0
3987 -36 -78 0
-3988 37 0
-3988 79 0
3988 -37 -79 0
-3989 38 0
-3989 80 0
3989 -38 -80 0
-3990 39 0
-3990 81 0
3990 -39 -81 0
-3991 40 0
-3991 82 0
3991 -40 -82 0
-3992 41 0
-3992 83 0
3992 -41 -83 0
-3993 42 0
-3993 84 0
3993 -42 -84 0
-3980 3994 0
-3994 3980 0
-3994 3995 0
-3981 3995 0
-3995 3994 3981 0
-3994 -3981 3996 0
-3996 3994 0
-3996 3981 0
-3995 3997 0
-3982 3997 0
-3997 3995 3982 0
-3996 3998 0
-3995 -3982 3998 0
-3998 3996 3995 0
-3998 3996 3982 0
-3996 -3982 3999 0
-3999 3996 0
-3999 3982 0
-3997 4000 0
-3983 4000 0
-4000 3997 3983 0
-3998 4001 0
-3997 -3983 4001 0
-4001 3998 3997 0
-4001 3998 3983 0
-3999 4002 0
-3998 -3983 4002 0
-4002 3999 3998 0
-4002 3999 3983 0
-4000 4003 0
-3984 4003 0
-4003 4000 3984 0
-4001 4004 0
-4000 -3984 4004 0
-4004 4001 4000 0
-4004 4001 3984 0
-4002 4005 0
-4001 -3984 4005 0
-4005 4002 4001 0
-4005 4002 3984 0
-4003 4006 0
-3985 4006 0
-4006 4003 3985 0
-4004 4007 0
-4003 -3985 4007 0
-4007 4004 4003 0
-4007 4004 3985 0
-4005 4008 0
-4004 -3985 4008 0
-4008 4005 4004 0
-4008 4005 3985 0
-4006 4009 0
-3986 4009 0
-4009 4006 3986 0
-4007 4010 0
-4006 -3986 4010 0
-4010 4007 4006 0
-4010 4007 3986 0
-4008 4011 0
-4007 -3986 4011 0
-4011 4008 4007 0
-4011 4008 3986 0
-4009 4012 0
-3987 4012 0
-4012 4009 3987 0
-4010 4013 0
-4009 -3987 4013 0
-4013 4010 4009 0
-4013 4010 3987 0
-4011 4014 0
-4010 -3987 4014 0
-4014 4011 4010 0
-4014 4011 3987 0
-4012 4015 0
-3988 4015 0
-4015 4012 3988 0
-4013 4016 0
-4012 -3988 4016 0
-4016 4013 4012 0
-4016 4013 3988 0
-4014 4017 0
-4013 -3988 4017 0
-4017 4014 4013 0
-4017 4014 3988 0
-4015 4018 0
-3989 4018 0
-4018 4015 3989 0
-4016 4019 0
-4015 -3989 4019 0
-4019 4016 4015 0
-4019 4016 3989 0
-4017 4020 0
-4016 -3989 4020 0
-4020 4017 4016 0
-4020 4017 3989 0
-4018 4021 0
-3990 4021 0
-4021 4018 3990 0
-4019 4022 0
-4018 -3990 4022 0
-4022 4019 4018 0
-4022 4019 3990 0
-4020 4023 0
-4019 -3990 4023 0
-4023 4020 4019 0
-4023 4020 3990 0
-4021 4024 0
-3991 4024 0
-4024 4021 3991 0
-4022 4025 0
-4021 -3991 4025 0
-4025 4022 4021 0
-4025 4022 3991 0
-4023 4026 0
-4022 -3991 4026 0
-4026 4023 4022 0
-4026 4023 3991 0
-4024 4027 0
-3992 4027 0
-4027 4024 3992 0
-4025 4028 0
-4024 -3992 4028 0
-4028 4025 4024 0
-4028 4025 3992 0
-4026 4029 0
-4025 -3992 4029 0
-4029 4026 4025 0
-4029 4026 3992 0
-4027 4030 0
-3993 4030 0
-4030 4027 3993 0
-4028 4031 0
-4027 -3993 4031 0
-4031 4028 4027 0
-4031 4028 3993 0
-4029 4032 0
-4028 -3993 4032 0
-4032 4029 4028 0
-4032 4029 3993 0
4032 0
-4033 29 0
-4033 85 0
4033 -29 -85 0
-4034 30 0
-4034 86 0
4034 -30 -86 0
-4035 31 0
-4035 87 0
4035 -31 -87 0
-4036 32 0
-4036 88 0
4036 -32 -88 0
-4037 33 0
-4037 89 0
4037 -33 -89 0
-4038 34 0
-4038 90 0
4038 -34 -90 0
-4039 35 0
-4039 91 0
4039 -35 -91 0
-4040 36 0
-4040 92 0
4040 -36 -92 0
-4041 37 0
-4041 93 0
4041 -37 -93 0
-4042 38 0
-4042 94 0
4042 -38 -94 0
-4043 39 0
-4043 95 0
4043 -39 -95 0
-4044 40 0
-4044 96 0
4044 -40 -96 0
-4045 41 0
-4045 97 0
4045 -41 -97 0
-4046 42 0
-4046 98 0
4046 -42 -98 0
-4033 4047 0
-4047 4033 0
-4047 4048 0
-4034 4048 0
-4048 4047 4034 0
-4047 -4034 4049 0
-4049 4047 0
-4049 4034 0
-4048 4050 0
-4035 4050 0
-4050 4048 4035 0
-4049 4051 0
-4048 -4035 4051 0
-4051 4049 4048 0
-4051 4049 4035 0
-4049 -4035 4052 0
-4052 4049 0
-4052 4035 0
-4050 4053 0
-4036 4053 0
-4053 4050 4036 0
-4051 4054 0
-4050 -4036 4054 0
-4054 4051 4050 0
-4054 4051 4036 0
-4052 4055 0
-4051 -4036 4055 0
-4055 4052 4051 0
-4055 4052 4036 0
-4053 4056 0
-4037 4056 0
-4056 4053 4037 0
-4054 4057 0
-4053 -4037 4057 0
-4057 4054 4053 0
-4057 4054 4037 0
-4055 4058 0
-4054 -4037 4058 0
-4058 4055 4054 0
-4058 4055 4037 0
-4056 4059 0
-4038 4059 0
-4059 4056 4038 0
-4057 4060 0
-4056 -4038 4060 0
-4060 4057 4056 0
-4060 4057 4038 0
-4058 4061 0
-4057 -4038 4061 0
-4061 4058 4057 0
-4061 4058 4038 0
-4059 4062 0
-4039 4062 0
-4062 4059 4039 0
-4060 4063 0
-4059 -4039 4063 0
-4063 4060 4059 0
-4063 4060 4039 0
-4061 4064 0
-4060 -4039 4064 0
-4064 4061 4060 0
-4064 4061 4039 0
-4062 4065 0
-4040 4065 0
-4065 4062 4040 0
-4063 4066 0
-4062 -4040 4066 0
-4066 4063 4062 0
-4066 4063 4040 0
-4064 4067 0
-4063 -4040 4067 0
-4067 4064 4063 0
-4067 4064 4040 0
-4065 4068 0
-4041 4068 0
-4068 4065 4041 0
-4066 4069 0
-4065 -4041 4069 0
-4069 4066 4065 0
-4069 4066 4041 0
-4067 4070 0
-4066 -4041 4070 0
-4070 4067 4066 0
-4070 4067 4041 0
-4068 4071 0
-4042 4071 0
-4071 4068 4042 0
-4069 4072 0
-4068 -4042 4072 0
-4072 4069 4068 0
-4072 4069 4042 0
-4070 4073 0
-4069 -4042 4073 0
-4073 4070 4069 0
-4073 4070 4042 0
-4071 4074 0
-4043 4074 0
-4074 4071 4043 0
-4072 4075 0
-4071 -4043 4075 0
-4075 4072 4071 0
-4075 4072 4043 0
-4073 4076 0
-4072 -4043 4076 0
-4076 4073 4072 0
-4076 4073 4043 0
-4074 4077 0
-4044 4077 0
-4077 4074 4044 0
-4075 4078 0
-4074 -4044 4078 0
-4078 4075 4074 0
-4078 4075 4044 0
-4076 4079 0
-4075 -4044 4079 0
-4079 4076 4075 0
-4079 4076 4044 0
-4077 4080 0
-4045 4080 0
-4080 4077 4045 0
-4078 4081 0
-4077 -4045 4081 0
-4081 4078 4077 0
-4081 4078 4045 0
-4079 4082 0
-4078 -4045 4082 0
-4082 4079 4078 0
-4082 4079 4045 0
-4080 4083 0
-4046 4083 0
-4083 4080 4046 0
-4081 4084 0
-4080 -4046 4084 0
-4084 4081 4080 0
-4084 4081 4046 0
-4082 4085 0
-4081 -4046 4085 0
-4085 4082 4081 0
-4085 4082 4046 0
4085 0
-4086 29 0
-4086 99 0
4086 -29 -99 0
-4087 30 0
-4087 100 0
4087 -30 -100 0
-4088 31 0
-4088 101 0
4088 -31 -101 0
-4089 32 0
-4089 102 0
4089 -32 -102 0
-4090 33 0
-4090 103 0
4090 -33 -103 0
-4091 34 0
-4091 104 0
4091 -34 -104 0
-4092 35 0
-4092 105 0
4092 -35 -105 0
-4093 36 0
-4093 106 0
4093 -36 -106 0
-4094 37 0
-4094 107 0
4094 -37 -107 0
-4095 38 0
-4095 108 0
4095 -38 -108 0
-4096 39 0
-4096 109 0
4096 -39 -109 0
-4097 40 0
-4097 110 0
4097 -40 -110 0
-4098 41 0
-4098 111 0
4098 -41 -111 0
-4099 42 0
-4099 112 0
4099 -42 -112 0
-4086 4100 0
-4100 4086 0
-4100 4101 0
-4087 4101 0
-4101 4100 4087 0
-4100 -4087 4102 0
-4102 4100 0
-4102 4087 0
-4101 4103 0
-4088 4103 0
-4103 4101 4088 0
-4102 4104 0
-4101 -4088 4104 0
-4104 4102 4101 0
-4104 4102 4088 0
-4102 -4088 4105 0
-4105 4102 0
-4105 4088 0
-4103 4106 0
-4089 4106 0
-4106 4103 4089 0
-4104 4107 0
-4103 -4089 4107 0
-4107 4104 4103 0
-4107 4104 4089 0
-4105 4108 0
-4104 -4089 4108 0
-4108 4105 4104 0
-4108 4105 4089 0
-4106 4109 0
-4090 4109 0
-4109 4106 4090 0
-4107 4110 0
-4106 -4090 4110 0
-4110 4107 4106 0
-4110 4107 4090 0
-4108 4111 0
-4107 -4090 4111 0
-4111 4108 4107 0
-4111 4108 4090 0
-4109 4112 0
-4091 4112 0
-4112 4109 4091 0
-4110 4113 0
-4109 -4091 4113 0
-4113 4110 4109 0
-4113 4110 4091 0
-4111 4114 0
-4110 -4091 4114 0
-4114 4111 4110 0
-4114 4111 4091 0
-4112 4115 0
-4092 4115 0
-4115 4112 4092 0
-4113 4116 0
-4112 -4092 4116 0
-4116 4113 4112 0
-4116 4113 4092 0
-4114 4117 0
-4113 -4092 4117 0
-4117 4114 4113 0
-4117 4114 4092 0
-4115 4118 0
-4093 4118 0
-4118 4115 4093 0
-4116 4119 0
-4115 -4093 4119 0
-4119 4116 4115 0
-4119 4116 4093 0
-4117 4120 0
-4116 -4093 4120 0
-4120 4117 4116 0
-4120 4117 4093 0
-4118 4121 0
-4094 4121 0
-4121 4118 4094 0
-4119 4122 0
-4118 -4094 4122 0
-4122 4119 4118 0
-4122 4119 4094 0
-4120 4123 0
-4119 -4094 4123 0
-4123 4120 4119 0
-4123 4120 4094 0
-4121 4124 0
-4095 4124 0
-4124 4121 4095 0
-4122 4125 0
-4121 -4095 4125 0
-4125 4122 4121 0
-4125 4122 4095 0
-4123 4126 0
-4122 -4095 4126 0
-4126 4123 4122 0
-4126 4123 4095 0
-4124 4127 0
-4096 4127 0
-4127 4124 4096 0
-4125 4128 0
-4124 -4096 4128 0
-4128 4125 4124 0
-4128 4125 4096 0
-4126 4129 0
-4125 -4096 4129 0
-4129 4126 4125 0
-4129 4126 4096 0
-4127 4130 0
-4097 4130 0
-4130 4127 4097 0
-4128 4131 0
-4127 -4097 4131 0
-4131 4128 4127 0
-4131 4128 4097 0
-4129 4132 0
-4128 -4097 4132 0
-4132 4129 4128 0
-4132 4129 4097 0
-4130 4133 0
-4098 4133 0
-4133 4130 4098 0
-4131 4134 0
-4130 -4098 4134 0
-4134 4131 4130 0
-4134 4131 4098 0
-4132 4135 0
-4131 -4098 4135 0
-4135 4132 4131 0
-4135 4132 4098 0
-4133 4136 0
-4099 4136 0
-4136 4133 4099 0
-4134 4137 0
-4133 -4099 4137 0
-4137 4134 4133 0
-4137 4134 4099 0
-4135 4138 0
-4134 -4099 4138 0
-4138 4135 4134 0
-4138 4135 4099 0
4138 0
-4139 29 0
-4139 113 0
4139 -29 -113 0
-4140 30 0
-4140 114 0
4140 -30 -114 0
-4141 31 0
-4141 115 0
4141 -31 -115 0
-4142 32 0
-4142 116 0
4142 -32 -116 0
-4143 33 0
-4143 117 0
4143 -33 -117 0
-4144 34 0
-4144 118 0
4144 -34 -118 0
-4145 35 0
-4145 119 0
4145 -35 -119 0
-4146 36 0
-4146 120 0
4146 -36 -120 0
-4147 37 0
-4147 121 0
4147 -37 -121 0
-4148 38 0
-4148 122 0
4148 -38 -122 0
-4149 39 0
-4149 123 0
4149 -39 -123 0
-4150 40 0
-4150 124 0
4150 -40 -124 0
-4151 41 0
-4151 125 0
4151 -41 -125 0
-4152 42 0
-4152 126 0
4152 -42 -126 0
-4139 4153 0
-4153 4139 0
-4153 4154 0
-4140 4154 0
-4154 4153 4140 0
-4153 -4140 4155 0
-4155 4153 0
-4155 4140 0
-4154 4156 0
-4141 4156 0
-4156 4154 4141 0
-4155 4157 0
-4154 -4141 4157 0
-4157 4155 4154 0
-4157 4155 4141 0
-4155 -4141 4158 0
-4158 4155 0
-4158 4141 0
-4156 4159 0
-4142 4159 0
-4159 4156 4142 0
-4157 4160 0
-4156 -4142 4160 0
-4160 4157 4156 0
-4160 4157 4142 0
-4158 4161 0
-4157 -4142 4161 0
-4161 4158 4157 0
-4161 4158 4142 0
-4159 4162 0
-4143 4162 0
-4162 4159 4143 0
-4160 4163 0
-4159 -4143 4163 0
-4163 4160 4159 0
-4163 4160 4143 0
-4161 4164 0
-4160 -4143 4164 0
-4164 4161 4160 0
-4164 4161 4143 0
-4162 4165 0
-4144 4165 0
-4165 4162 4144 0
-4163 4166 0
-4162 -4144 4166 0
-4166 4163 4162 0
-4166 4163 4144 0
-4164 4167 0
-4163 -4144 4167 0
-4167 4164 4163 0
-4167 4164 4144 0
-4165 4168 0
-4145 4168 0
-4168 4165 4145 0
-4166 4169 0
-4165 -4145 4169 0
-4169 4166 4165 0
-4169 4166 4145 0
-4167 4170 0
-4166 -4145 4170 0
-4170 4167 4166 0
-4170 4167 4145 0
-4168 4171 0
-4146 4171 0
-4171 4168 4146 0
-4169 4172 0
-4168 -4146 4172 0
-4172 4169 4168 0
-4172 4169 4146 0
-4170 4173 0
-4169 -4146 4173 0
-4173 4170 4169 0
-4173 4170 4146 0
-4171 4174 0
-4147 4174 0
-4174 4171 4147 0
-4172 4175 0
-4171 -4147 4175 0
-4175 4172 4171 0
-4175 4172 4147 0
-4173 4176 0
-4172 -4147 4176 0
-4176 4173 4172 0
-4176 4173 4147 0
-4174 4177 0
-4148 4177 0
-4177 4174 4148 0
-4175 4178 0
-4174 -4148 4178 0
-4178 4175 4174 0
-4178 4175 4148 0
-4176 4179 0
-4175 -4148 4179 0
-4179 4176 4175 0
-4179 4176 4148 0
-4177 4180 0
-4149 4180 0
-4180 4177 4149 0
-4178 4181 0
-4177 -4149 4181 0
-4181 4178 4177 0
-4181 4178 4149 0
-4179 4182 0
-4178 -4149 4182 0
-4182 4179 4178 0
-4182 4179 4149 0
-4180 4183 0
-4150 4183 0
-4183 4180 4150 0
-4181 4184 0
-4180 -4150 4184 0
-4184 4181 4180 0
-4184 4181 4150 0
-4182 4185 0
-4181 -4150 4185 0
-4185 4182 4181 0
-4185 4182 4150 0
-4183 4186 0
-4151 4186 0
-4186 4183 4151 0
-4184 4187 0
-4183 -4151 4187 0
-4187 4184 4183 0
-4187 4184 4151 0
-4185 4188 0
-4184 -4151 4188 0
-4188 4185 4184 0
-4188 4185 4151 0
-4186 4189 0
-4152 4189 0
-4189 4186 4152 0
-4187 4190 0
-4186 -4152 4190 0
-4190 4187 4186 0
-4190 4187 4152 0
-4188 4191 0
-4187 -4152 4191 0
-4191 4188 4187 0
-4191 4188 4152 0
4191 0
-4192 29 0
-4192 127 0
4192 -29 -127 0
-4193 30 0
-4193 128 0
4193 -30 -128 0
-4194 31 0
-4194 129 0
4194 -31 -129 0
-4195 32 0
-4195 130 0
4195 -32 -130 0
-4196 33 0
-4196 131 0
4196 -33 -131 0
-4197 34 0
-4197 132 0
4197 -34 -132 0
-4198 35 0
-4198 133 0
4198 -35 -133 0
-4199 36 0
-4199 134 0
4199 -36 -134 0
-4200 37 0
-4200 135 0
4200 -37 -135 0
-4201 38 0
-4201 136 0
4201 -38 -136 0
-4202 39 0
-4202 137 0
4202 -39 -137 0
-4203 40 0
-4203 138 0
4203 -40 -138 0
-4204 41 0
-4204 139 0
4204 -41 -139 0
-4205 42 0
-4205 140 0
4205 -42 -140 0
-4192 4206 0
-4206 4192 0
-4206 4207 0
-4193 4207 0
-4207 4206 4193 0
-4206 -4193 4208 0
-4208 4206 0
-4208 4193 0
-4207 4209 0
-4194 4209 0
-4209 4207 4194 0
-4208 4210 0
-4207 -4194 4210 0
-4210 4208 4207 0
-4210 4208 4194 0
-4208 -4194 4211 0
-4211 4208 0
-4211 4194 0
-4209 4212 0
-4195 4212 0
-4212 4209 4195 0
-4210 4213 0
-4209 -4195 4213 0
-4213 4210 4209 0
-4213 4210 4195 0
-4211 4214 0
-4210 -4195 4214 0
-4214 4211 4210 0
-4214 4211 4195 0
-4212 4215 0
-4196 4215 0
-4215 4212 4196 0
-4213 4216 0
-4212 -4196 4216 0
-4216 4213 4212 0
-4216 4213 4196 0
-4214 4217 0
-4213 -4196 4217 0
-4217 4214 4213 0
-4217 4214 4196 0
-4215 4218 0
-4197 4218 0
-4218 4215 4197 0
-4216 4219 0
-4215 -4197 4219 0
-4219 4216 4215 0
-4219 4216 4197 0
-4217 4220 0
-4216 -4197 4220 0
-4220 4217 4216 0
-4220 4217 4197 0
-4218 4221 0
-4198 4221 0
-4221 4218 4198 0
-4219 4222 0
-4218 -4198 4222 0
-4222 4219 4218 0
-4222 4219 4198 0
-4220 4223 0
-4219 -4198 4223 0
-4223 4220 4219 0
-4223 4220 4198 0
-4221 4224 0
-4199 4224 0
-4224 4221 4199 0
-4222 4225 0
-4221 -4199 4225 0
-4225 4222 4221 0
-4225 4222 4199 0
-4223 4226 0
-4222 -4199 4226 0
-4226 4223 4222 0
-4226 4223 4199 0
-4224 4227 0
-4200 4227 0
-4227 4224 4200 0
-4225 4228 0
-4224 -4200 4228 0
-4228 4225 4224 0
-4228 4225 4200 0
-4226 4229 0
-4225 -4200 4229 0
-4229 4226 4225 0
-4229 4226 4200 0
-4227 4230 0
-4201 4230 0
-4230 4227 4201 0
-4228 4231 0
-4227 -4201 4231 0
-4231 4228 4227 0
-4231 4228 4201 0
-4229 4232 0
-4228 -4201 4232 0
-4232 4229 4228 0
-4232 4229 4201 0
-4230 4233 0
-4202 4233 0
-4233 4230 4202 0
-4231 4234 0
-4230 -4202 4234 0
-4234 4231 4230 0
-4234 4231 4202 0
-4232 4235 0
-4231 -4202 4235 0
-4235 4232 4231 0
-4235 4232 4202 0
-4233 4236 0
-4203 4236 0
-4236 4233 4203 0
-4234 4237 0
-4233 -4203 4237 0
-4237 4234 4233 0
-4237 4234 4203 0
-4235 4238 0
-4234 -4203 4238 0
-4238 4235 4234 0
-4238 4235 4203 0
-4236 4239 0
-4204 4239 0
-4239 4236 4204 0
-4237 4240 0
-4236 -4204 4240 0
-4240 4237 4236 0
-4240 4237 4204 0
-4238 4241 0
-4237 -4204 4241 0
-4241 4238 4237 0
-4241 4238 4204 0
-4239 4242 0
-4205 4242 0
-4242 4239 4205 0
-4240 4243 0
-4239 -4205 4243 0
-4243 4240 4239 0
-4243 4240 4205 0
-4241 4244 0
-4240 -4205 4244 0
-4244 4241 4240 0
-4244 4241 4205 0
4244 0
-4245 29 0
-4245 141 0
4245 -29 -141 0
-4246 30 0
-4246 142 0
4246 -30 -142 0
-4247 31 0
-4247 143 0
4247 -31 -143 0
-4248 32 0
-4248 144 0
4248 -32 -144 0
-4249 33 0
-4249 145 0
4249 -33 -145 0
-4250 34 0
-4250 146 0
4250 -34 -146 0
-4251 35 0
-4251 147 0
4251 -35 -147 0
-4252 36 0
-4252 148 0
4252 -36 -148 0
-4253 37 0
-4253 149 0
4253 -37 -149 0
-4254 38 0
-4254 150 0
4254 -38 -150 0
-4255 39 0
-4255 151 0
4255 -39 -151 0
-4256 40 0
-4256 152 0
4256 -40 -152 0
-4257 41 0
-4257 153 0
4257 -41 -153 0
-4258 42 0
-4258 154 0
4258 -42 -154 0
-4245 4259 0
-4259 4245 0
-4259 4260 0
-4246 4260 0
-4260 4259 4246 0
-4259 -4246 4261 0
-4261 4259 0
-4261 4246 0
-4260 4262 0
-4247 4262 0
-4262 4260 4247 0
-4261 4263 0
-4260 -4247 4263 0
-4263 4261 4260 0
-4263 4261 4247 0
-4261 -4247 4264 0
-4264 4261 0
-4264 4247 0
-4262 4265 0
-4248 4265 0
-4265 4262 4248 0
-4263 4266 0
-4262 -4248 4266 0
-4266 4263 4262 0
-4266 4263 4248 0
-4264 4267 0
-4263 -4248 4267 0
-4267 4264 4263 0
-4267 4264 4248 0
-4265 4268 0
-4249 4268 0
-4268 4265 4249 0
-4266 4269 0
-4265 -4249 4269 0
-4269 4266 4265 0
-4269 4266 4249 0
-4267 4270 0
-4266 -4249 4270 0
-4270 4267 4266 0
-4270 4267 4249 0
-4268 4271 0
-4250 4271 0
-4271 4268 4250 0
-4269 4272 0
-4268 -4250 4272 0
-4272 4269 4268 0
-4272 4269 4250 0
-4270 4273 0
-4269 -4250 4273 0
-4273 4270 4269 0
-4273 4270 4250 0
-4271 4274 0
-4251 4274 0
-4274 4271 4251 0
-4272 4275 0
-4271 -4251 4275 0
-4275 4272 4271 0
-4275 4272 4251 0
-4273 4276 0
-4272 -4251 4276 0
-4276 4273 4272 0
-4276 4273 4251 0
-4274 4277 0
-4252 4277 0
-4277 4274 4252 0
-4275 4278 0
-4274 -4252 4278 0
-4278 4275 4274 0
-4278 4275 4252 0
-4276 4279 0
-4275 -4252 4279 0
-4279 4276 4275 0
-4279 4276 4252 0
-4277 4280 0
-4253 4280 0
-4280 4277 4253 0
-4278 4281 0
-4277 -4253 4281 0
-4281 4278 4277 0
-4281 4278 4253 0
-4279 4282 0
-4278 -4253 4282 0
-4282 4279 4278 0
-4282 4279 4253 0
-4280 4283 0
-4254 4283 0
-4283 4280 4254 0
-4281 4284 0
-4280 -4254 4284 0
-4284 4281 4280 0
-4284 4281 4254 0
-4282 4285 0
-4281 -4254 4285 0
-4285 4282 4281 0
-4285 4282 4254 0
-4283 4286 0
-4255 4286 0
-4286 4283 4255 0
-4284 4287 0
-4283 -4255 4287 0
-4287 4284 4283 0
-4287 4284 4255 0
-4285 4288 0
-4284 -4255 4288 0
-4288 4285 4284 0
-4288 4285 4255 0
-4286 4289 0
-4256 4289 0
-4289 4286 4256 0
-4287 4290 0
-4286 -4256 4290 0
-4290 4287 4286 0
-4290 4287 4256 0
-4288 4291 0
-4287 -4256 4291 0
-4291 4288 4287 0
-4291 4288 4256 0
-4289 4292 0
-4257 4292 0
-4292 4289 4257 0
-4290 4293 0
-4289 -4257 4293 0
-4293 4290 4289 0
-4293 4290 4257 0
-4291 4294 0
-4290 -4257 4294 0
-4294 4291 4290 0
-4294 4291 4257 0
-4292 4295 0
-4258 4295 0
-4295 4292 4258 0
-4293 4296 0
-4292 -4258 4296 0
-4296 4293 4292 0
-4296 4293 4258 0
-4294 4297 0
-4293 -4258 4297 0
-4297 4294 4293 0
-4297 4294 4258 0
4297 0
-4298 29 0
-4298 155 0
4298 -29 -155 0
-4299 30 0
-4299 156 0
4299 -30 -156 0
-4300 31 0
-4300 157 0
4300 -31 -157 0
-4301 32 0
-4301 158 0
4301 -32 -158 0
-4302 33 0
-4302 159 0
4302 -33 -159 0
-4303 34 0
-4303 160 0
4303 -34 -160 0
-4304 35 0
-4304 161 0
4304 -35 -161 0
-4305 36 0
-4305 162 0
4305 -36 -162 0
-4306 37 0
-4306 163 0
4306 -37 -163 0
-4307 38 0
-4307 164 0
4307 -38 -164 0
-4308 39 0
-4308 165 0
4308 -39 -165 0
-4309 40 0
-4309 166 0
4309 -40 -166 0
-4310 41 0
-4310 167 0
4310 -41 -167 0
-4311 42 0
-4311 168 0
4311 -42 -168 0
-4298 4312 0
-4312 4298 0
-4312 4313 0
-4299 4313 0
-4313 4312 4299 0
-4312 -4299 4314 0
-4314 4312 0
-4314 4299 0
-4313 4315 0
-4300 4315 0
-4315 4313 4300 0
-4314 4316 0
-4313 -4300 4316 0
-4316 4314 4313 0
-4316 4314 4300 0
-4314 -4300 4317 0
-4317 4314 0
-4317 4300 0
-4315 4318 0
-4301 4318 0
-4318 4315 4301 0
-4316 4319 0
-4315 -4301 4319 0
-4319 4316 4315 0
-4319 4316 4301 0
-4317 4320 0
-4316 -4301 4320 0
-4320 4317 4316 0
-4320 4317 4301 0
-4318 4321 0
-4302 4321 0
-4321 4318 4302 0
-4319 4322 0
-4318 -4302 4322 0
-4322 4319 4318 0
-4322 4319 4302 0
-4320 4323 0
-4319 -4302 4323 0
-4323 4320 4319 0
-4323 4320 4302 0
-4321 4324 0
-4303 4324 0
-4324 4321 4303 0
-4322 4325 0
-4321 -4303 4325 0
-4325 4322 4321 0
-4325 4322 4303 0
-4323 4326 0
-4322 -4303 4326 0
-4326 4323 4322 0
-4326 4323 4303 0
-4324 4327 0
-4304 4327 0
-4327 4324 4304 0
-4325 4328 0
-4324 -4304 4328 0
-4328 4325 4324 0
-4328 4325 4304 0
-4326 4329 0
-4325 -4304 4329 0
-4329 4326 4325 0
-4329 4326 4304 0
-4327 4330 0
-4305 4330 0
-4330 4327 4305 0
-4328 4331 0
-4327 -4305 4331 0
-4331 4328 4327 0
-4331 4328 4305 0
-4329 4332 0
-4328 -4305 4332 0
-4332 4329 4328 0
-4332 4329 4305 0
-4330 4333 0
-4306 4333 0
-4333 4330 4306 0
-4331 4334 0
-4330 -4306 4334 0
-4334 4331 4330 0
-4334 4331 4306 0
-4332 4335 0
-4331 -4306 4335 0
-4335 4332 4331 0
-4335 4332 4306 0
-4333 4336 0
-4307 4336 0
-4336 4333 4307 0
-4334 4337 0
-4333 -4307 4337 0
-4337 4334 4333 0
-4337 4334 4307 0
-4335 4338 0
-4334 -4307 4338 0
-4338 4335 4334 0
-4338 4335 4307 0
-4336 4339 0
-4308 4339 0
-4339 4336 4308 0
-4337 4340 0
-4336 -4308 4340 0
-4340 4337 4336 0
-4340 4337 4308 0
-4338 4341 0
-4337 -4308 4341 0
-4341 4338 4337 0
-4341 4338 4308 0
-4339 4342 0
-4309 4342 0
-4342 4339 4309 0
-4340 4343 0
-4339 -4309 4343 0
-4343 4340 4339 0
-4343 4340 4309 0
-4341 4344 0
-4340 -4309 4344 0
-4344 4341 4340 0
-4344 4341 4309 0
-4342 4345 0
-4310 4345 0
-4345 4342 4310 0
-4343 4346 0
-4342 -4310 4346 0
-4346 4343 4342 0
-4346 4343 4310 0
-4344 4347 0
-4343 -4310 4347 0
-4347 4344 4343 0
-4347 4344 4310 0
-4345 4348 0
-4311 4348 0
-4348 4345 4311 0
-4346 4349 0
-4345 -4311 4349 0
-4349 4346 4345 0
-4349 4346 4311 0
-4347 4350 0
-4346 -4311 4350 0
-4350 4347 4346 0
-4350 4347 4311 0
4350 0
-4351 29 0
-4351 169 0
4351 -29 -169 0
-4352 30 0
-4352 170 0
4352 -30 -170 0
-4353 31 0
-4353 171 0
4353 -31 -171 0
-4354 32 0
-4354 172 0
4354 -32 -172 0
-4355 33 0
-4355 173 0
4355 -33 -173 0
-4356 34 0
-4356 174 0
4356 -34 -174 0
-4357 35 0
-4357 175 0
4357 -35 -175 0
-4358 36 0
-4358 176 0
4358 -36 -176 0
-4359 37 0
-4359 177 0
4359 -37 -177 0
-4360 38 0
-4360 178 0
4360 -38 -178 0
-4361 39 0
-4361 179 0
4361 -39 -179 0
-4362 40 0
-4362 180 0
4362 -40 -180 0
-4363 41 0
-4363 181 0
4363 -41 -181 0
-4364 42 0
-4364 182 0
4364 -42 -182 0
-4351 4365 0
-4365 4351 0
-4365 4366 0
-4352 4366 0
-4366 4365 4352 0
-4365 -4352 4367 0
-4367 4365 0
-4367 4352 0
-4366 4368 0
-4353 4368 0
-4368 4366 4353 0
-4367 4369 0
-4366 -4353 4369 0
-4369 4367 4366 0
-4369 4367 4353 0
-4367 -4353 4370 0
-4370 4367 0
-4370 4353 0
-4368 4371 0
-4354 4371 0
-4371 4368 4354 0
-4369 4372 0
-4368 -4354 4372 0
-4372 4369 4368 0
-4372 4369 4354 0
-4370 4373 0
-4369 -4354 4373 0
-4373 4370 4369 0
-4373 4370 4354 0
-4371 4374 0
-4355 4374 0
-4374 4371 4355 0
-4372 4375 0
-4371 -4355 4375 0
-4375 4372 4371 0
-4375 4372 4355 0
-4373 4376 0
-4372 -4355 4376 0
-4376 4373 4372 0
-4376 4373 4355 0
-4374 4377 0
-4356 4377 0
-4377 4374 4356 0
-4375 4378 0
-4374 -4356 4378 0
-4378 4375 4374 0
-4378 4375 4356 0
-4376 4379 0
-4375 -4356 4379 0
-4379 4376 4375 0
-4379 4376 4356 0
-4377 4380 0
-4357 4380 0
-4380 4377 4357 0
-4378 4381 0
-4377 -4357 4381 0
-4381 4378 4377 0
-4381 4378 4357 0
-4379 4382 0
-4378 -4357 4382 0
-4382 4379 4378 0
-4382 4379 4357 0
-4380 4383 0
-4358 4383 0
-4383 4380 4358 0
-4381 4384 0
-4380 -4358 4384 0
-4384 4381 4380 0
-4384 4381 4358 0
-4382 4385 0
-4381 -4358 4385 0
-4385 4382 4381 0
-4385 4382 4358 0
-4383 4386 0
-4359 4386 0
-4386 4383 4359 0
-4384 4387 0
-4383 -4359 4387 0
-4387 4384 4383 0
-4387 4384 4359 0
-4385 4388 0
-4384 -4359 4388 0
-4388 4385 4384 0
-4388 4385 4359 0
-4386 4389 0
-4360 4389 0
-4389 4386 4360 0
-4387 4390 0
-4386 -4360 4390 0
-4390 4387 4386 0
-4390 4387 4360 0
-4388 4391 0
-4387 -4360 4391 0
-4391 4388 4387 0
-4391 4388 4360 0
-4389 4392 0
-4361 4392 0
-4392 4389 4361 0
-4390 4393 0
-4389 -4361 4393 0
-4393 4390 4389 0
-4393 4390 4361 0
-4391 4394 0
-4390 -4361 4394 0
-4394 4391 4390 0
-4394 4391 4361 0
-4392 4395 0
-4362 4395 0
-4395 4392 4362 0
-4393 4396 0
-4392 -4362 4396 0
-4396 4393 4392 0
-4396 4393 4362 0
-4394 4397 0
-4393 -4362 4397 0
-4397 4394 4393 0
-4397 4394 4362 0
-4395 4398 0
-4363 4398 0
-4398 4395 4363 0
-4396 4399 0
-4395 -4363 4399 0
-4399 4396 4395 0
-4399 4396 4363 0
-4397 4400 0
-4396 -4363 4400 0
-4400 4397 4396 0
-4400 4397 4363 0
-4398 4401 0
-4364 4401 0
-4401 4398 4364 0
-4399 4402 0
-4398 -4364 4402 0
-4402 4399 4398 0
-4402 4399 4364 0
-4400 4403 0
-4399 -4364 4403 0
-4403 4400 4399 0
-4403 4400 4364 0
4403 0
-4404 29 0
-4404 183 0
4404 -29 -183 0
-4405 30 0
-4405 184 0
4405 -30 -184 0
-4406 31 0
-4406 185 0
4406 -31 -185 0
-4407 32 0
-4407 186 0
4407 -32 -186 0
-4408 33 0
-4408 187 0
4408 -33 -187 0
-4409 34 0
-4409 188 0
4409 -34 -188 0
-4410 35 0
-4410 189 0
4410 -35 -189 0
-4411 36 0
-4411 190 0
4411 -36 -190 0
-4412 37 0
-4412 191 0
4412 -37 -191 0
-4413 38 0
-4413 192 0
4413 -38 -192 0
-4414 39 0
-4414 193 0
4414 -39 -193 0
-4415 40 0
-4415 194 0
4415 -40 -194 0
-4416 41 0
-4416 195 0
4416 -41 -195 0
-4417 42 0
-4417 196 0
4417 -42 -196 0
-4404 4418 0
-4418 4404 0
-4418 4419 0
-4405 4419 0
-4419 4418 4405 0
-4418 -4405 4420 0
-4420 4418 0
-4420 4405 0
-4419 4421 0
-4406 4421 0
-4421 4419 4406 0
-4420 4422 0
-4419 -4406 4422 0
-4422 4420 4419 0
-4422 4420 4406 0
-4420 -4406 4423 0
-4423 4420 0
-4423 4406 0
-4421 4424 0
-4407 4424 0
-4424 4421 4407 0
-4422 4425 0
-4421 -4407 4425 0
-4425 4422 4421 0
-4425 4422 4407 0
-4423 4426 0
-4422 -4407 4426 0
-4426 4423 4422 0
-4426 4423 4407 0
-4424 4427 0
-4408 4427 0
-4427 4424 4408 0
-4425 4428 0
-4424 -4408 4428 0
-4428 4425 4424 0
-4428 4425 4408 0
-4426 4429 0
-4425 -4408 4429 0
-4429 4426 4425 0
-4429 4426 4408 0
-4427 4430 0
-4409 4430 0
-4430 4427 4409 0
-4428 4431 0
-4427 -4409 4431 0
-4431 4428 4427 0
-4431 4428 4409 0
-4429 4432 0
-4428 -4409 4432 0
-4432 4429 4428 0
-4432 4429 4409 0
-4430 4433 0
-4410 4433 0
-4433 4430 4410 0
-4431 4434 0
-4430 -4410 4434 0
-4434 4431 4430 0
-4434 4431 4410 0
-4432 4435 0
-4431 -4410 4435 0
-4435 4432 4431 0
-4435 4432 4410 0
-4433 4436 0
-4411 4436 0
-4436 4433 4411 0
-4434 4437 0
-4433 -4411 4437 0
-4437 4434 4433 0
-4437 4434 4411 0
-4435 4438 0
-4434 -4411 4438 0
-4438 4435 4434 0
-4438 4435 4411 0
-4436 4439 0
-4412 4439 0
-4439 4436 4412 0
-4437 4440 0
-4436 -4412 4440 0
-4440 4437 4436 0
-4440 4437 4412 0
-4438 4441 0
-4437 -4412 4441 0
-4441 4438 4437 0
-4441 4438 4412 0
-4439 4442 0
-4413 4442 0
-4442 4439 4413 0
-4440 4443 0
-4439 -4413 4443 0
-4443 4440 4439 0
-4443 4440 4413 0
-4441 4444 0
-4440 -4413 4444 0
-4444 4441 4440 0
-4444 4441 4413 0
-4442 4445 0
-4414 4445 0
-4445 4442 4414 0
-4443 4446 0
-4442 -4414 4446 0
-4446 4443 4442 0
-4446 4443 4414 0
-4444 4447 0
-4443 -4414 4447 0
-4447 4444 4443 0
-4447 4444 4414 0
-4445 4448 0
-4415 4448 0
-4448 4445 4415 0
-4446 4449 0
-4445 -4415 4449 0
-4449 4446 4445 0
-4449 4446 4415 0
-4447 4450 0
-4446 -4415 4450 0
-4450 4447 4446 0
-4450 4447 4415 0
-4448 4451 0
-4416 4451 0
-4451 4448 4416 0
-4449 4452 0
-4448 -4416 4452 0
-4452 4449 4448 0
-4452 4449 4416 0
-4450 4453 0
-4449 -4416 4453 0
-4453 4450 4449 0
-4453 4450 4416 0
-4451 4454 0
-4417 4454 0
-4454 4451 4417 0
-4452 4455 0
-4451 -4417 4455 0
-4455 4452 4451 0
-4455 4452 4417 0
-4453 4456 0
-4452 -4417 4456 0
-4456 4453 4452 0
-4456 4453 4417 0
4456 0
-4457 43 0
-4457 57 0
4457 -43 -57 0
-4458 44 0
-4458 58 0
4458 -44 -58 0
-4459 45 0
-4459 59 0
4459 -45 -59 0
-4460 46 0
-4460 60 0
4460 -46 -60 0
-4461 47 0
-4461 61 0
4461 -47 -61 0
-4462 48 0
-4462 62 0
4462 -48 -62 0
-4463 49 0
-4463 63 0
4463 -49 -63 0
-4464 50 0
-4464 64 0
4464 -50 -64 0
-4465 51 0
-4465 65 0
4465 -51 -65 0
-4466 52 0
-4466 66 0
4466 -52 -66 0
-4467 53 0
-4467 67 0
4467 -53 -67 0
-4468 54 0
-4468 68 0
4468 -54 -68 0
-4469 55 0
-4469 69 0
4469 -55 -69 0
-4470 56 0
-4470 70 0
4470 -56 -70 0
-4457 4471 0
-4471 4457 0
-4471 4472 0
-4458 4472 0
-4472 4471 4458 0
-4471 -4458 4473 0
-4473 4471 0
-4473 4458 0
-4472 4474 0
-4459 4474 0
-4474 4472 4459 0
-4473 4475 0
-4472 -4459 4475 0
-4475 4473 4472 0
-4475 4473 4459 0
-4473 -4459 4476 0
-4476 4473 0
-4476 4459 0
-4474 4477 0
-4460 4477 0
-4477 4474 4460 0
-4475 4478 0
-4474 -4460 4478 0
-4478 4475 4474 0
-4478 4475 4460 0
-4476 4479 0
-4475 -4460 4479 0
-4479 4476 4475 0
-4479 4476 4460 0
-4477 4480 0
-4461 4480 0
-4480 4477 4461 0
-4478 4481 0
-4477 -4461 4481 0
-4481 4478 4477 0
-4481 4478 4461 0
-4479 4482 0
-4478 -4461 4482 0
-4482 4479 4478 0
-4482 4479 4461 0
-4480 4483 0
-4462 4483 0
-4483 4480 4462 0
-4481 4484 0
-4480 -4462 4484 0
-4484 4481 4480 0
-4484 4481 4462 0
-4482 4485 0
-4481 -4462 4485 0
-4485 4482 4481 0
-4485 4482 4462 0
-4483 4486 0
-4463 4486 0
-4486 4483 4463 0
-4484 4487 0
-4483 -4463 4487 0
-4487 4484 4483 0
-4487 4484 4463 0
-4485 4488 0
-4484 -4463 4488 0
-4488 4485 4484 0
-4488 4485 4463 0
-4486 4489 0
-4464 4489 0
-4489 4486 4464 0
-4487 4490 0
-4486 -4464 4490 0
-4490 4487 4486 0
-4490 4487 4464 0
-4488 4491 0
-4487 -4464 4491 0
-4491 4488 4487 0
-4491 4488 4464 0
-4489 4492 0
-4465 4492 0
-4492 4489 4465 0
-4490 4493 0
-4489 -4465 4493 0
-4493 4490 4489 0
-4493 4490 4465 0
-4491 4494 0
-4490 -4465 4494 0
-4494 4491 4490 0
-4494 4491 4465 0
-4492 4495 0
-4466 4495 0
-4495 4492 4466 0
-4493 4496 0
-4492 -4466 4496 0
-4496 4493 4492 0
-4496 4493 4466 0
-4494 4497 0
-4493 -4466 4497 0
-4497 4494 4493 0
-4497 4494 4466 0
-4495 4498 0
-4467 4498 0
-4498 4495 4467 0
-4496 4499 0
-4495 -4467 4499 0
-4499 4496 4495 0
-4499 4496 4467 0
-4497 4500 0
-4496 -4467 4500 0
-4500 4497 4496 0
-4500 4497 4467 0
-4498 4501 0
-4468 4501 0
-4501 4498 4468 0
-4499 4502 0
-4498 -4468 4502 0
-4502 4499 4498 0
-4502 4499 4468 0
-4500 4503 0
-4499 -4468 4503 0
-4503 4500 4499 0
-4503 4500 4468 0
-4501 4504 0
-4469 4504 0
-4504 4501 4469 0
-4502 4505 0
-4501 -4469 4505 0
-4505 4502 4501 0
-4505 4502 4469 0
-4503 4506 0
-4502 -4469 4506 0
-4506 4503 4502 0
-4506 4503 4469 0
-4504 4507 0
-4470 4507 0
-4507 4504 4470 0
-4505 4508 0
-4504 -4470 4508 0
-4508 4505 4504 0
-4508 4505 4470 0
-4506 4509 0
-4505 -4470 4509 0
-4509 4506 4505 0
-4509 4506 4470 0
4509 0
-4510 43 0
-4510 71 0
4510 -43 -71 0
-4511 44 0
-4511 72 0
4511 -44 -72 0
-4512 45 0
-4512 73 0
4512 -45 -73 0
-4513 46 0
-4513 74 0
4513 -46 -74 0
-4514 47 0
-4514 75 0
4514 -47 -75 0
-4515 48 0
-4515 76 0
4515 -48 -76 0
-4516 49 0
-4516 77 0
4516 -49 -77 0
-4517 50 0
-4517 78 0
4517 -50 -78 0
-4518 51 0
-4518 79 0
4518 -51 -79 0
-4519 52 0
-4519 80 0
4519 -52 -80 0
-4520 53 0
-4520 81 0
4520 -53 -81 0
-4521 54 0
-4521 82 0
4521 -54 -82 0
-4522 55 0
-4522 83 0
4522 -55 -83 0
-4523 56 0
-4523 84 0
4523 -56 -84 0
-4510 4524 0
-4524 4510 0
-4524 4525 0
-4511 4525 0
-4525 4524 4511 0
-4524 -4511 4526 0
-4526 4524 0
-4526 4511 0
-4525 4527 0
-4512 4527 0
-4527 4525 4512 0
-4526 4528 0
-4525 -4512 4528 0
-4528 4526 4525 0
-4528 4526 4512 0
-4526 -4512 4529 0
-4529 4526 0
-4529 4512 0
-4527 4530 0
-4513 4530 0
-4530 4527 4513 0
-4528 4531 0
-4527 -4513 4531 0
-4531 4528 4527 0
-4531 4528 4513 0
-4529 4532 0
-4528 -4513 4532 0
-4532 4529 4528 0
-4532 4529 4513 0
-4530 4533 0
-4514 4533 0
-4533 4530 4514 0
-4531 4534 0
-4530 -4514 4534 0
-4534 4531 4530 0
-4534 4531 4514 0
-4532 4535 0
-4531 -4514 4535 0
-4535 4532 4531 0
-4535 4532 4514 0
-4533 4536 0
-4515 4536 0
-4536 4533 4515 0
-4534 4537 0
-4533 -4515 4537 0
-4537 4534 4533 0
-4537 4534 4515 0
-4535 4538 0
-4534 -4515 4538 0
-4538 4535 4534 0
-4538 4535 4515 0
-4536 4539 0
-4516 4539 0
-4539 4536 4516 0
-4537 4540 0
-4536 -4516 4540 0
-4540 4537 4536 0
-4540 4537 4516 0
-4538 4541 0
-4537 -4516 4541 0
-4541 4538 4537 0
-4541 4538 4516 0
-4539 4542 0
-4517 4542 0
-4542 4539 4517 0
-4540 4543 0
-4539 -4517 4543 0
-4543 4540 4539 0
-4543 4540 4517 0
-4541 4544 0
-4540 -4517 4544 0
-4544 4541 4540 0
-4544 4541 4517 0
-4542 4545 0
-4518 4545 0
-4545 4542 4518 0
-4543 4546 0
-4542 -4518 4546 0
-4546 4543 4542 0
-4546 4543 4518 0
-4544 4547 0
-4543 -4518 4547 0
-4547 4544 4543 0
-4547 4544 4518 0
-4545 4548 0
-4519 4548 0
-4548 4545 4519 0
-4546 4549 0
-4545 -4519 4549 0
-4549 4546 4545 0
-4549 4546 4519 0
-4547 4550 0
-4546 -4519 4550 0
-4550 4547 4546 0
-4550 4547 4519 0
-4548 4551 0
-4520 4551 0
-4551 4548 4520 0
-4549 4552 0
-4548 -4520 4552 0
-4552 4549 4548 0
-4552 4549 4520 0
-4550 4553 0
-4549 -4520 4553 0
-4553 4550 4549 0
-4553 4550 4520 0
-4551 4554 0
-4521 4554 0
-4554 4551 4521 0
-4552 4555 0
-4551 -4521 4555 0
-4555 4552 4551 0
-4555 4552 4521 0
-4553 4556 0
-4552 -4521 4556 0
-4556 4553 4552 0
-4556 4553 4521 0
-4554 4557 0
-4522 4557 0
-4557 4554 4522 0
-4555 4558 0
-4554 -4522 4558 0
-4558 4555 4554 0
-4558 4555 4522 0
-4556 4559 0
-4555 -4522 4559 0
-4559 4556 4555 0
-4559 4556 4522 0
-4557 4560 0
-4523 4560 0
-4560 4557 4523 0
-4558 4561 0
-4557 -4523 4561 0
-4561 4558 4557 0
-4561 4558 4523 0
-4559 4562 0
-4558 -4523 4562 0
-4562 4559 4558 0
-4562 4559 4523 0
4562 0
-4563 43 0
-4563 85 0
4563 -43 -85 0
-4564 44 0
-4564 86 0
4564 -44 -86 0
-4565 45 0
-4565 87 0
4565 -45 -87 0
-4566 46 0
-4566 88 0
4566 -46 -88 0
-4567 47 0
-4567 89 0
4567 -47 -89 0
-4568 48 0
-4568 90 0
4568 -48 -90 0
-4569 49 0
-4569 91 0
4569 -49 -91 0
-4570 50 0
-4570 92 0
4570 -50 -92 0
-4571 51 0
-4571 93 0
4571 -51 -93 0
-4572 52 0
-4572 94 0
4572 -52 -94 0
-4573 53 0
-4573 95 0
4573 -53 -95 0
-4574 54 0
-4574 96 0
4574 -54 -96 0
-4575 55 0
-4575 97 0
4575 -55 -97 0
-4576 56 0
-4576 98 0
4576 -56 -98 0
-4563 4577 0
-4577 4563 0
-4577 4578 0
-4564 4578 0
-4578 4577 4564 0
-4577 -4564 4579 0
-4579 4577 0
-4579 4564 0
-4578 4580 0
-4565 4580 0
-4580 4578 4565 0
-4579 4581 0
-4578 -4565 4581 0
-4581 4579 4578 0
-4581 4579 4565 0
-4579 -4565 4582 0
-4582 4579 0
-4582 4565 0
-4580 4583 0
-4566 4583 0
-4583 4580 4566 0
-4581 4584 0
-4580 -4566 4584 0
-4584 4581 4580 0
-4584 4581 4566 0
-4582 4585 0
-4581 -4566 4585 0
-4585 4582 4581 0
-4585 4582 4566 0
-4583 4586 0
-4567 4586 0
-4586 4583 4567 0
-4584 4587 0
-4583 -4567 4587 0
-4587 4584 4583 0
-4587 4584 4567 0
-4585 4588 0
-4584 -4567 4588 0
-4588 4585 4584 0
-4588 4585 4567 0
-4586 4589 0
-4568 4589 0
-4589 4586 4568 0
-4587 4590 0
-4586 -4568 4590 0
-4590 4587 4586 0
-4590 4587 4568 0
-4588 4591 0
-4587 -4568 4591 0
-4591 4588 4587 0
-4591 4588 4568 0
-4589 4592 0
-4569 4592 0
-4592 4589 4569 0
-4590 4593 0
-4589 -4569 4593 0
-4593 4590 4589 0
-4593 4590 4569 0
-4591 4594 0
-4590 -4569 4594 0
-4594 4591 4590 0
-4594 4591 4569 0
-4592 4595 0
-4570 4595 0
-4595 4592 4570 0
-4593 4596 0
-4592 -4570 4596 0
-4596 4593 4592 0
-4596 4593 4570 0
-4594 4597 0
-4593 -4570 4597 0
-4597 4594 4593 0
-4597 4594 4570 0
-4595 4598 0
-4571 4598 0
-4598 4595 4571 0
-4596 4599 0
-4595 -4571 4599 0
-4599 4596 4595 0
-4599 4596 4571 0
-4597 4600 0
-4596 -4571 4600 0
-4600 4597 4596 0
-4600 4597 4571 0
-4598 4601 0
-4572 4601 0
-4601 4598 4572 0
-4599 4602 0
-4598 -4572 4602 0
-4602 4599 4598 0
-4602 4599 4572 0
-4600 4603 0
-4599 -4572 4603 0
-4603 4600 4599 0
-4603 4600 4572 0
-4601 4604 0
-4573 4604 0
-4604 4601 4573 0
-4602 4605 0
-4601 -4573 4605 0
-4605 4602 4601 0
-4605 4602 4573 0
-4603 4606 0
-4602 -4573 4606 0
-4606 4603 4602 0
-4606 4603 4573 0
-4604 4607 0
-4574 4607 0
-4607 4604 4574 0
-4605 4608 0
-4604 -4574 4608 0
-4608 4605 4604 0
-4608 4605 4574 0
-4606 4609 0
-4605 -4574 4609 0
-4609 4606 4605 0
-4609 4606 4574 0
-4607 4610 0
-4575 4610 0
-4610 4607 4575 0
-4608 4611 0
-4607 -4575 4611 0
-4611 4608 4607 0
-4611 4608 4575 0
-4609 4612 0
-4608 -4575 4612 0
-4612 4609 4608 0
-4612 4609 4575 0
-4610 4613 0
-4576 4613 0
-4613 4610 4576 0
-4611 4614 0
-4610 -4576 4614 0
-4614 4611 4610 0
-4614 4611 4576 0
-4612 4615 0
-4611 -4576 4615 0
-4615 4612 4611 0
-4615 4612 4576 0
4615 0
-4616 43 0
-4616 99 0
4616 -43 -99 0
-4617 44 0
-4617 100 0
4617 -44 -100 0
-4618 45 0
-4618 101 0
4618 -45 -101 0
-4619 46 0
-4619 102 0
4619 -46 -102 0
-4620 47 0
-4620 103 0
4620 -47 -103 0
-4621 48 0
-4621 104 0
4621 -48 -104 0
-4622 49 0
-4622 105 0
4622 -49 -105 0
-4623 50 0
-4623 106 0
4623 -50 -106 0
-4624 51 0
-4624 107 0
4624 -51 -107 0
-4625 52 0
-4625 108 0
4625 -52 -108 0
-4626 53 0
-4626 109 0
4626 -53 -109 0
-4627 54 0
-4627 110 0
4627 -54 -110 0
-4628 55 0
-4628 111 0
4628 -55 -111 0
-4629 56 0
-4629 112 0
4629 -56 -112 0
-4616 4630 0
-4630 4616 0
-4630 4631 0
-4617 4631 0
-4631 4630 4617 0
-4630 -4617 4632 0
-4632 4630 0
-4632 4617 0
-4631 4633 0
-4618 4633 0
-4633 4631 4618 0
-4632 4634 0
-4631 -4618 4634 0
-4634 4632 4631 0
-4634 4632 4618 0
-4632 -4618 4635 0
-4635 4632 0
-4635 4618 0
-4633 4636 0
-4619 4636 0
-4636 4633 4619 0
-4634 4637 0
-4633 -4619 4637 0
-4637 4634 4633 0
-4637 4634 4619 0
-4635 4638 0
-4634 -4619 4638 0
-4638 4635 4634 0
-4638 4635 4619 0
-4636 4639 0
-4620 4639 0
-4639 4636 4620 0
-4637 4640 0
-4636 -4620 4640 0
-4640 4637 4636 0
-4640 4637 4620 0
-4638 4641 0
-4637 -4620 4641 0
-4641 4638 4637 0
-4641 4638 4620 0
-4639 4642 0
-4621 4642 0
-4642 4639 4621 0
-4640 4643 0
-4639 -4621 4643 0
-4643 4640 4639 0
-4643 4640 4621 0
-4641 4644 0
-4640 -4621 4644 0
-4644 4641 4640 0
-4644 4641 4621 0
-4642 4645 0
-4622 4645 0
-4645 4642 4622 0
-4643 4646 0
-4642 -4622 4646 0
-4646 4643 4642 0
-4646 4643 4622 0
-4644 4647 0
-4643 -4622 4647 0
-4647 4644 4643 0
-4647 4644 4622 0
-4645 4648 0
-4623 4648 0
-4648 4645 4623 0
-4646 4649 0
-4645 -4623 4649 0
-4649 4646 4645 0
-4649 4646 4623 0
-4647 4650 0
-4646 -4623 4650 0
-4650 4647 4646 0
-4650 4647 4623 0
-4648 4651 0
-4624 4651 0
-4651 4648 4624 0
-4649 4652 0
-4648 -4624 4652 0
-4652 4649 4648 0
-4652 4649 4624 0
-4650 4653 0
-4649 -4624 4653 0
-4653 4650 4649 0
-4653 4650 4624 0
-4651 4654 0
-4625 4654 0
-4654 4651 4625 0
-4652 4655 0
-4651 -4625 4655 0
-4655 4652 4651 0
-4655 4652 4625 0
-4653 4656 0
-4652 -4625 4656 0
-4656 4653 4652 0
-4656 4653 4625 0
-4654 4657 0
-4626 4657 0
-4657 4654 4626 0
-4655 4658 0
-4654 -4626 4658 0
-4658 4655 4654 0
-4658 4655 4626 0
-4656 4659 0
-4655 -4626 4659 0
-4659 4656 4655 0
-4659 4656 4626 0
-4657 4660 0
-4627 4660 0
-4660 4657 4627 0
-4658 4661 0
-4657 -4627 4661 0
-4661 4658 4657 0
-4661 4658 4627 0
-4659 4662 0
-4658 -4627 4662 0
-4662 4659 4658 0
-4662 4659 4627 0
-4660 4663 0
-4628 4663 0
-4663 4660 4628 0
-4661 4664 0
-4660 -4628 4664 0
-4664 4661 4660 0
-4664 4661 4628 0
-4662 4665 0
-4661 -4628 4665 0
-4665 4662 4661 0
-4665 4662 4628 0
-4663 4666 0
-4629 4666 0
-4666 4663 4629 0
-4664 4667 0
-4663 -4629 4667 0
-4667 4664 4663 0
-4667 4664 4629 0
-4665 4668 0
-4664 -4629 4668 0
-4668 4665 4664 0
-4668 4665 4629 0
4668 0
-4669 43 0
-4669 113 0
4669 -43 -113 0
-4670 44 0
-4670 114 0
4670 -44 -114 0
-4671 45 0
-4671 115 0
4671 -45 -115 0
-4672 46 0
-4672 116 0
4672 -46 -116 0
-4673 47 0
-4673 117 0
4673 -47 -117 0
-4674 48 0
-4674 118 0
4674 -48 -118 0
-4675 49 0
-4675 119 0
4675 -49 -119 0
-4676 50 0
-4676 120 0
4676 -50 -120 0
-4677 51 0
-4677 121 0
4677 -51 -121 0
-4678 52 0
-4678 122 0
4678 -52 -122 0
-4679 53 0
-4679 123 0
4679 -53 -123 0
-4680 54 0
-4680 124 0
4680 -54 -124 0
-4681 55 0
-4681 125 0
4681 -55 -125 0
-4682 56 0
-4682 126 0
4682 -56 -126 0
-4669 4683 0
-4683 4669 0
-4683 4684 0
-4670 4684 0
-4684 4683 4670 0
-4683 -4670 4685 0
-4685 4683 0
-4685 4670 0
-4684 4686 0
-4671 4686 0
-4686 4684 4671 0
-4685 4687 0
-4684 -4671 4687 0
-4687 4685 4684 0
-4687 4685 4671 0
-4685 -4671 4688 0
-4688 4685 0
-4688 4671 0
-4686 4689 0
-4672 4689 0
-4689 4686 4672 0
-4687 4690 0
-4686 -4672 4690 0
-4690 4687 4686 0
-4690 4687 4672 0
-4688 4691 0
-4687 -4672 4691 0
-4691 4688 4687 0
-4691 4688 4672 0
-4689 4692 0
-4673 4692 0
-4692 4689 4673 0
-4690 4693 0
-4689 -4673 4693 0
-4693 4690 4689 0
-4693 4690 4673 0
-4691 4694 0
-4690 -4673 4694 0
-4694 4691 4690 0
-4694 4691 4673 0
-4692 4695 0
-4674 4695 0
-4695 4692 4674 0
-4693 4696 0
-4692 -4674 4696 0
-4696 4693 4692 0
-4696 4693 4674 0
-4694 4697 0
-4693 -4674 4697 0
-4697 4694 4693 0
-4697 4694 4674 0
-4695 4698 0
-4675 4698 0
-4698 4695 4675 0
-4696 4699 0
-4695 -4675 4699 0
-4699 4696 4695 0
-4699 4696 4675 0
-4697 4700 0
-4696 -4675 4700 0
-4700 4697 4696 0
-4700 4697 4675 0
-4698 4701 0
-4676 4701 0
-4701 4698 4676 0
-4699 4702 0
-4698 -4676 4702 0
-4702 4699 4698 0
-4702 4699 4676 0
-4700 4703 0
-4699 -4676 4703 0
-4703 4700 4699 0
-4703 4700 4676 0
-4701 4704 0
-4677 4704 0
-4704 4701 4677 0
-4702 4705 0
-4701 -4677 4705 0
-4705 4702 4701 0
-4705 4702 4677 0
-4703 4706 0
-4702 -4677 4706 0
-4706 4703 4702 0
-4706 4703 4677 0
-4704 4707 0
-4678 4707 0
-4707 4704 4678 0
-4705 4708 0
-4704 -4678 4708 0
-4708 4705 4704 0
-4708 4705 4678 0
-4706 4709 0
-4705 -4678 4709 0
-4709 4706 4705 0
-4709 4706 4678 0
-4707 4710 0
-4679 4710 0
-4710 4707 4679 0
-4708 4711 0
-4707 -4679 4711 0
-4711 4708 4707 0
-4711 4708 4679 0
-4709 4712 0
-4708 -4679 4712 0
-4712 4709 4708 0
-4712 4709 4679 0
-4710 4713 0
-4680 4713 0
-4713 4710 4680 0
-4711 4714 0
-4710 -4680 4714 0
-4714 4711 4710 0
-4714 4711 4680 0
-4712 4715 0
-4711 -4680 4715 0
-4715 4712 4711 0
-4715 4712 4680 0
-4713 4716 0
-4681 4716 0
-4716 4713 4681 0
-4714 4717 0
-4713 -4681 4717 0
-4717 4714 4713 0
-4717 4714 4681 0
-4715 4718 0
-4714 -4681 4718 0
-4718 4715 4714 0
-4718 4715 4681 0
-4716 4719 0
-4682 4719 0
-4719 4716 4682 0
-4717 4720 0
-4716 -4682 4720 0
-4720 4717 4716 0
-4720 4717 4682 0
-4718 4721 0
-4717 -4682 4721 0
-4721 4718 4717 0
-4721 4718 4682 0
4721 0
-4722 43 0
-4722 127 0
4722 -43 -127 0
-4723 44 0
-4723 128 0
4723 -44 -128 0
-4724 45 0
-4724 129 0
4724 -45 -129 0
-4725 46 0
-4725 130 0
4725 -46 -130 0
-4726 47 0
-4726 131 0
4726 -47 -131 0
-4727 48 0
-4727 132 0
4727 -48 -132 0
-4728 49 0
-4728 133 0
4728 -49 -133 0
-4729 50 0
-4729 134 0
4729 -50 -134 0
-4730 51 0
-4730 135 0
4730 -51 -135 0
-4731 52 0
-4731 136 0
4731 -52 -136 0
-4732 53 0
-4732 137 0
4732 -53 -137 0
-4733 54 0
-4733 138 0
4733 -54 -138 0
-4734 55 0
-4734 139 0
4734 -55 -139 0
-4735 56 0
-4735 140 0
4735 -56 -140 0
-4722 4736 0
-4736 4722 0
-4736 4737 0
-4723 4737 0
-4737 4736 4723 0
-4736 -4723 4738 0
-4738 4736 0
-4738 4723 0
-4737 4739 0
-4724 4739 0
-4739 4737 4724 0
-4738 4740 0
-4737 -4724 4740 0
-4740 4738 4737 0
-4740 4738 4724 0
-4738 -4724 4741 0
-4741 4738 0
-4741 4724 0
-4739 4742 0
-4725 4742 0
-4742 4739 4725 0
-4740 4743 0
-4739 -4725 4743 0
-4743 4740 4739 0
-4743 4740 4725 0
-4741 4744 0
-4740 -4725 4744 0
-4744 4741 4740 0
-4744 4741 4725 0
-4742 4745 0
-4726 4745 0
-4745 4742 4726 0
-4743 4746 0
-4742 -4726 4746 0
-4746 4743 4742 0
-4746 4743 4726 0
-4744 4747 0
-4743 -4726 4747 0
-4747 4744 4743 0
-4747 4744 4726 0
-4745 4748 0
-4727 4748 0
-4748 4745 4727 0
-4746 4749 0
-4745 -4727 4749 0
-4749 4746 4745 0
-4749 4746 4727 0
-4747 4750 0
-4746 -4727 4750 0
-4750 4747 4746 0
-4750 4747 4727 0
-4748 4751 0
-4728 4751 0
-4751 4748 4728 0
-4749 4752 0
-4748 -4728 4752 0
-4752 4749 4748 0
-4752 4749 4728 0
-4750 4753 0
-4749 -4728 4753 0
-4753 4750 4749 0
-4753 4750 4728 0
-4751 4754 0
-4729 4754 0
-4754 4751 4729 0
-4752 4755 0
-4751 -4729 4755 0
-4755 4752 4751 0
-4755 4752 4729 0
-4753 4756 0
-4752 -4729 4756 0
-4756 4753 4752 0
-4756 4753 4729 0
-4754 4757 0
-4730 4757 0
-4757 4754 4730 0
-4755 4758 0
-4754 -4730 4758 0
-4758 4755 4754 0
-4758 4755 4730 0
-4756 4759 0
-4755 -4730 4759 0
-4759 4756 4755 0
-4759 4756 4730 0
-4757 4760 0
-4731 4760 0
-4760 4757 4731 0
-4758 4761 0
-4757 -4731 4761 0
-4761 4758 4757 0
-4761 4758 4731 0
-4759 4762 0
-4758 -4731 4762 0
-4762 4759 4758 0
-4762 4759 4731 0
-4760 4763 0
-4732 4763 0
-4763 4760 4732 0
-4761 4764 0
-4760 -4732 4764 0
-4764 4761 4760 0
-4764 4761 4732 0
-4762 4765 0
-4761 -4732 4765 0
-4765 4762 4761 0
-4765 4762 4732 0
-4763 4766 0
-4733 4766 0
-4766 4763 4733 0
-4764 4767 0
-4763 -4733 4767 0
-4767 4764 4763 0
-4767 4764 4733 0
-4765 4768 0
-4764 -4733 4768 0
-4768 4765 4764 0
-4768 4765 4733 0
-4766 4769 0
-4734 4769 0
-4769 4766 4734 0
-4767 4770 0
-4766 -4734 4770 0
-4770 4767 4766 0
-4770 4767 4734 0
-4768 4771 0
-4767 -4734 4771 0
-4771 4768 4767 0
-4771 4768 4734 0
-4769 4772 0
-4735 4772 0
-4772 4769 4735 0
-4770 4773 0
-4769 -4735 4773 0
-4773 4770 4769 0
-4773 4770 4735 0
-4771 4774 0
-4770 -4735 4774 0
-4774 4771 4770 0
-4774 4771 4735 0
4774 0
-4775 43 0
-4775 141 0
4775 -43 -141 0
-4776 44 0
-4776 142 0
4776 -44 -142 0
-4777 45 0
-4777 143 0
4777 -45 -143 0
-4778 46 0
-4778 144 0
4778 -46 -144 0
-4779 47 0
-4779 145 0
4779 -47 -145 0
-4780 48 0
-4780 146 0
4780 -48 -146 0
-4781 49 0
-4781 147 0
4781 -49 -147 0
-4782 50 0
-4782 148 0
4782 -50 -148 0
-4783 51 0
-4783 149 0
4783 -51 -149 0
-4784 52 0
-4784 150 0
4784 -52 -150 0
-4785 53 0
-4785 151 0
4785 -53 -151 0
-4786 54 0
-4786 152 0
4786 -54 -152 0
-4787 55 0
-4787 153 0
4787 -55 -153 0
-4788 56 0
-4788 154 0
4788 -56 -154 0
-4775 4789 0
-4789 4775 0
-4789 4790 0
-4776 4790 0
-4790 4789 4776 0
-4789 -4776 4791 0
-4791 4789 0
-4791 4776 0
-4790 4792 0
-4777 4792 0
-4792 4790 4777 0
-4791 4793 0
-4790 -4777 4793 0
-4793 4791 4790 0
-4793 4791 4777 0
-4791 -4777 4794 0
-4794 4791 0
-4794 4777 0
-4792 4795 0
-4778 4795 0
-4795 4792 4778 0
-4793 4796 0
-4792 -4778 4796 0
-4796 4793 4792 0
-4796 4793 4778 0
-4794 4797 0
-4793 -4778 4797 0
-4797 4794 4793 0
-4797 4794 4778 0
-4795 4798 0
-4779 4798 0
-4798 4795 4779 0
-4796 4799 0
-4795 -4779 4799 0
-4799 4796 4795 0
-4799 4796 4779 0
-4797 4800 0
-4796 -4779 4800 0
-4800 4797 4796 0
-4800 4797 4779 0
-4798 4801 0
-4780 4801 0
-4801 4798 4780 0
-4799 4802 0
-4798 -4780 4802 0
-4802 4799 4798 0
-4802 4799 4780 0
-4800 4803 0
-4799 -4780 4803 0
-4803 4800 4799 0
-4803 4800 4780 0
-4801 4804 0
-4781 4804 0
-4804 4801 4781 0
-4802 4805 0
-4801 -4781 4805 0
-4805 4802 4801 0
-4805 4802 4781 0
-4803 4806 0
-4802 -4781 4806 0
-4806 4803 4802 0
-4806 4803 4781 0
-4804 4807 0
-4782 4807 0
-4807 4804 4782 0
-4805 4808 0
-4804 -4782 4808 0
-4808 4805 4804 0
-4808 4805 4782 0
-4806 4809 0
-4805 -4782 4809 0
-4809 4806 4805 0
-4809 4806 4782 0
-4807 4810 0
-4783 4810 0
-4810 4807 4783 0
-4808 4811 0
-4807 -4783 4811 0
-4811 4808 4807 0
-4811 4808 4783 0
-4809 4812 0
-4808 -4783 4812 0
-4812 4809 4808 0
-4812 4809 4783 0
-4810 4813 0
-4784 4813 0
-4813 4810 4784 0
-4811 4814 0
-4810 -4784 4814 0
-4814 4811 4810 0
-4814 4811 4784 0
-4812 4815 0
-4811 -4784 4815 0
-4815 4812 4811 0
-4815 4812 4784 0
-4813 4816 0
-4785 4816 0
-4816 4813 4785 0
-4814 4817 0
-4813 -4785 4817 0
-4817 4814 4813 0
-4817 4814 4785 0
-4815 4818 0
-4814 -4785 4818 0
-4818 4815 4814 0
-4818 4815 4785 0
-4816 4819 0
-4786 4819 0
-4819 4816 4786 0
-4817 4820 0
-4816 -4786 4820 0
-4820 4817 4816 0
-4820 4817 4786 0
-4818 4821 0
-4817 -4786 4821 0
-4821 4818 4817 0
-4821 4818 4786 0
-4819 4822 0
-4787 4822 0
-4822 4819 4787 0
-4820 4823 0
-4819 -4787 4823 0
-4823 4820 4819 0
-4823 4820 4787 0
-4821 4824 0
-4820 -4787 4824 0
-4824 4821 4820 0
-4824 4821 4787 0
-4822 4825 0
-4788 4825 0
-4825 4822 4788 0
-4823 4826 0
-4822 -4788 4826 0
-4826 4823 4822 0
-4826 4823 4788 0
-4824 4827 0
-4823 -4788 4827 0
-4827 4824 4823 0
-4827 4824 4788 0
4827 0
-4828 43 0
-4828 155 0
4828 -43 -155 0
-4829 44 0
-4829 156 0
4829 -44 -156 0
-4830 45 0
-4830 157 0
4830 -45 -157 0
-4831 46 0
-4831 158 0
4831 -46 -158 0
-4832 47 0
-4832 159 0
4832 -47 -159 0
-4833 48 0
-4833 160 0
4833 -48 -160 0
-4834 49 0
-4834 161 0
4834 -49 -161 0
-4835 50 0
-4835 162 0
4835 -50 -162 0
-4836 51 0
-4836 163 0
4836 -51 -163 0
-4837 52 0
-4837 164 0
4837 -52 -164 0
-4838 53 0
-4838 165 0
4838 -53 -165 0
-4839 54 0
-4839 166 0
4839 -54 -166 0
-4840 55 0
-4840 167 0
4840 -55 -167 0
-4841 56 0
-4841 168 0
4841 -56 -168 0
-4828 4842 0
-4842 4828 0
-4842 4843 0
-4829 4843 0
-4843 4842 4829 0
-4842 -4829 4844 0
-4844 4842 0
-4844 4829 0
-4843 4845 0
-4830 4845 0
-4845 4843 4830 0
-4844 4846 0
-4843 -4830 4846 0
-4846 4844 4843 0
-4846 4844 4830 0
-4844 -4830 4847 0
-4847 4844 0
-4847 4830 0
-4845 4848 0
-4831 4848 0
-4848 4845 4831 0
-4846 4849 0
-4845 -4831 4849 0
-4849 4846 4845 0
-4849 4846 4831 0
-4847 4850 0
-4846 -4831 4850 0
-4850 4847 4846 0
-4850 4847 4831 0
-4848 4851 0
-4832 4851 0
-4851 4848 4832 0
-4849 4852 0
-4848 -4832 4852 0
-4852 4849 4848 0
-4852 4849 4832 0
-4850 4853 0
-4849 -4832 4853 0
-4853 4850 4849 0
-4853 4850 4832 0
-4851 4854 0
-4833 4854 0
-4854 4851 4833 0
-4852 4855 0
-4851 -4833 4855 0
-4855 4852 4851 0
-4855 4852 4833 0
-4853 4856 0
-4852 -4833 4856 0
-4856 4853 4852 0
-4856 4853 4833 0
-4854 4857 0
-4834 4857 0
-4857 4854 4834 0
-4855 4858 0
-4854 -4834 4858 0
-4858 4855 4854 0
-4858 4855 4834 0
-4856 4859 0
-4855 -4834 4859 0
-4859 4856 4855 0
-4859 4856 4834 0
-4857 4860 0
-4835 4860 0
-4860 4857 4835 0
-4858 4861 0
-4857 -4835 4861 0
-4861 4858 4857 0
-4861 4858 4835 0
-4859 4862 0
-4858 -4835 4862 0
-4862 4859 4858 0
-4862 4859 4835 0
-4860 4863 0
-4836 4863 0
-4863 4860 4836 0
-4861 4864 0
-4860 -4836 4864 0
-4864 4861 4860 0
-4864 4861 4836 0
-4862 4865 0
-4861 -4836 4865 0
-4865 4862 4861 0
-4865 4862 4836 0
-4863 4866 0
-4837 4866 0
-4866 4863 4837 0
-4864 4867 0
-4863 -4837 4867 0
-4867 4864 4863 0
-4867 4864 4837 0
-4865 4868 0
-4864 -4837 4868 0
-4868 4865 4864 0
-4868 4865 4837 0
-4866 4869 0
-4838 4869 0
-4869 4866 4838 0
-4867 4870 0
-4866 -4838 4870 0
-4870 4867 4866 0
-4870 4867 4838 0
-4868 4871 0
-4867 -4838 4871 0
-4871 4868 4867 0
-4871 4868 4838 0
-4869 4872 0
-4839 4872 0
-4872 4869 4839 0
-4870 4873 0
-4869 -4839 4873 0
-4873 4870 4869 0
-4873 4870 4839 0
-4871 4874 0
-4870 -4839 4874 0
-4874 4871 4870 0
-4874 4871 4839 0
-4872 4875 0
-4840 4875 0
-4875 4872 4840 0
-4873 4876 0
-4872 -4840 4876 0
-4876 4873 4872 0
-4876 4873 4840 0
-4874 4877 0
-4873 -4840 4877 0
-4877 4874 4873 0
-4877 4874 4840 0
-4875 4878 0
-4841 4878 0
-4878 4875 4841 0
-4876 4879 0
-4875 -4841 4879 0
-4879 4876 4875 0
-4879 4876 4841 0
-4877 4880 0
-4876 -4841 4880 0
-4880 4877 4876 0
-4880 4877 4841 0
4880 0
-4881 43 0
-4881 169 0
4881 -43 -169 0
-4882 44 0
-4882 170 0
4882 -44 -170 0
-4883 45 0
-4883 171 0
4883 -45 -171 0
-4884 46 0
-4884 172 0
4884 -46 -172 0
-4885 47 0
-4885 173 0
4885 -47 -173 0
-4886 48 0
-4886 174 0
4886 -48 -174 0
-4887 49 0
-4887 175 0
4887 -49 -175 0
-4888 50 0
-4888 176 0
4888 -50 -176 0
-4889 51 0
-4889 177 0
4889 -51 -177 0
-4890 52 0
-4890 178 0
4890 -52 -178 0
-4891 53 0
-4891 179 0
4891 -53 -179 0
-4892 54 0
-4892 180 0
4892 -54 -180 0
-4893 55 0
-4893 181 0
4893 -55 -181 0
-4894 56 0
-4894 182 0
4894 -56 -182 0
-4881 4895 0
-4895 4881 0
-4895 4896 0
-4882 4896 0
-4896 4895 4882 0
-4895 -4882 4897 0
-4897 4895 0
-4897 4882 0
-4896 4898 0
-4883 4898 0
-4898 4896 4883 0
-4897 4899 0
-4896 -4883 4899 0
-4899 4897 4896 0
-4899 4897 4883 0
-4897 -4883 4900 0
-4900 4897 0
-4900 4883 0
-4898 4901 0
-4884 4901 0
-4901 4898 4884 0
-4899 4902 0
-4898 -4884 4902 0
-4902 4899 4898 0
-4902 4899 4884 0
-4900 4903 0
-4899 -4884 4903 0
-4903 4900 4899 0
-4903 4900 4884 0
-4901 4904 0
-4885 4904 0
-4904 4901 4885 0
-4902 4905 0
-4901 -4885 4905 0
-4905 4902 4901 0
-4905 4902 4885 0
-4903 4906 0
-4902 -4885 4906 0
-4906 4903 4902 0
-4906 4903 4885 0
-4904 4907 0
-4886 4907 0
-4907 4904 4886 0
-4905 4908 0
-4904 -4886 4908 0
-4908 4905 4904 0
-4908 4905 4886 0
-4906 4909 0
-4905 -4886 4909 0
-4909 4906 4905 0
-4909 4906 4886 0
-4907 4910 0
-4887 4910 0
-4910 4907 4887 0
-4908 4911 0
-4907 -4887 4911 0
-4911 4908 4907 0
-4911 4908 4887 0
-4909 4912 0
-4908 -4887 4912 0
-4912 4909 4908 0
-4912 4909 4887 0
-4910 4913 0
-4888 4913 0
-4913 4910 4888 0
-4911 4914 0
-4910 -4888 4914 0
-4914 4911 4910 0
-4914 4911 4888 0
-4912 4915 0
-4911 -4888 4915 0
-4915 4912 4911 0
-4915 4912 4888 0
-4913 4916 0
-4889 4916 0
-4916 4913 4889 0
-4914 4917 0
-4913 -4889 4917 0
-4917 4914 4913 0
-4917 4914 4889 0
-4915 4918 0
-4914 -4889 4918 0
-4918 4915 4914 0
-4918 4915 4889 0
-4916 4919 0
-4890 4919 0
-4919 4916 4890 0
-4917 4920 0
-4916 -4890 4920 0
-4920 4917 4916 0
-4920 4917 4890 0
-4918 4921 0
-4917 -4890 4921 0
-4921 4918 4917 0
-4921 4918 4890 0
-4919 4922 0
-4891 4922 0
-4922 4919 4891 0
-4920 4923 0
-4919 -4891 4923 0
-4923 4920 4919 0
-4923 4920 4891 0
-4921 4924 0
-4920 -4891 4924 0
-4924 4921 4920 0
-4924 4921 4891 0
-4922 4925 0
-4892 4925 0
-4925 4922 4892 0
-4923 4926 0
-4922 -4892 4926 0
-4926 4923 4922 0
-4926 4923 4892 0
-4924 4927 0
-4923 -4892 4927 0
-4927 4924 4923 0
-4927 4924 4892 0
-4925 4928 0
-4893 4928 0
-4928 4925 4893 0
-4926 4929 0
-4925 -4893 4929 0
-4929 4926 4925 0
-4929 4926 4893 0
-4927 4930 0
-4926 -4893 4930 0
-4930 4927 4926 0
-4930 4927 4893 0
-4928 4931 0
-4894 4931 0
-4931 4928 4894 0
-4929 4932 0
-4928 -4894 4932 0
-4932 4929 4928 0
-4932 4929 4894 0
-4930 4933 0
-4929 -4894 4933 0
-4933 4930 4929 0
-4933 4930 4894 0
4933 0
-4934 43 0
-4934 183 0
4934 -43 -183 0
-4935 44 0
-4935 184 0
4935 -44 -184 0
-4936 45 0
-4936 185 0
4936 -45 -185 0
-4937 46 0
-4937 186 0
4937 -46 -186 0
-4938 47 0
-4938 187 0
4938 -47 -187 0
-4939 48 0
-4939 188 0
4939 -48 -188 0
-4940 49 0
-4940 189 0
4940 -49 -189 0
-4941 50 0
-4941 190 0
4941 -50 -190 0
-4942 51 0
-4942 191 0
4942 -51 -191 0
-4943 52 0
-4943 192 0
4943 -52 -192 0
-4944 53 0
-4944 193 0
4944 -53 -193 0
-4945 54 0
-4945 194 0
4945 -54 -194 0
-4946 55 0
-4946 195 0
4946 -55 -195 0
-4947 56 0
-4947 196 0
4947 -56 -196 0
-4934 4948 0
-4948 4934 0
-4948 4949 0
-4935 4949 0
-4949 4948 4935 0
-4948 -4935 4950 0
-4950 4948 0
-4950 4935 0
-4949 4951 0
-4936 4951 0
-4951 4949 4936 0
-4950 4952 0
-4949 -4936 4952 0
-4952 4950 4949 0
-4952 4950 4936 0
-4950 -4936 4953 0
-4953 4950 0
-4953 4936 0
-4951 4954 0
-4937 4954 0
-4954 4951 4937 0
-4952 4955 0
-4951 -4937 4955 0
-4955 4952 4951 0
-4955 4952 4937 0
-4953 4956 0
-4952 -4937 4956 0
-4956 4953 4952 0
-4956 4953 4937 0
-4954 4957 0
-4938 4957 0
-4957 4954 4938 0
-4955 4958 0
-4954 -4938 4958 0
-4958 4955 4954 0
-4958 4955 4938 0
-4956 4959 0
-4955 -4938 4959 0
-4959 4956 4955 0
-4959 4956 4938 0
-4957 4960 0
-4939 4960 0
-4960 4957 4939 0
-4958 4961 0
-4957 -4939 4961 0
-4961 4958 4957 0
-4961 4958 4939 0
-4959 4962 0
-4958 -4939 4962 0
-4962 4959 4958 0
-4962 4959 4939 0
-4960 4963 0
-4940 4963 0
-4963 4960 4940 0
-4961 4964 0
-4960 -4940 4964 0
-4964 4961 4960 0
-4964 4961 4940 0
-4962 4965 0
-4961 -4940 4965 0
-4965 4962 4961 0
-4965 4962 4940 0
-4963 4966 0
-4941 4966 0
-4966 4963 4941 0
-4964 4967 0
-4963 -4941 4967 0
-4967 4964 4963 0
-4967 4964 4941 0
-4965 4968 0
-4964 -4941 4968 0
-4968 4965 4964 0
-4968 4965 4941 0
-4966 4969 0
-4942 4969 0
-4969 4966 4942 0
-4967 4970 0
-4966 -4942 4970 0
-4970 4967 4966 0
-4970 4967 4942 0
-4968 4971 0
-4967 -4942 4971 0
-4971 4968 4967 0
-4971 4968 4942 0
-4969 4972 0
-4943 4972 0
-4972 4969 4943 0
-4970 4973 0
-4969 -4943 4973 0
-4973 4970 4969 0
-4973 4970 4943 0
-4971 4974 0
-4970 -4943 4974 0
-4974 4971 4970 0
-4974 4971 4943 0
-4972 4975 0
-4944 4975 0
-4975 4972 4944 0
-4973 4976 0
-4972 -4944 4976 0
-4976 4973 4972 0
-4976 4973 4944 0
-4974 4977 0
-4973 -4944 4977 0
-4977 4974 4973 0
-4977 4974 4944 0
-4975 4978 0
-4945 4978 0
-4978 4975 4945 0
-4976 4979 0
-4975 -4945 4979 0
-4979 4976 4975 0
-4979 4976 4945 0
-4977 4980 0
-4976 -4945 4980 0
-4980 4977 4976 0
-4980 4977 4945 0
-4978 4981 0
-4946 4981 0
-4981 4978 4946 0
-4979 4982 0
-4978 -4946 4982 0
-4982 4979 4978 0
-4982 4979 4946 0
-4980 4983 0
-4979 -4946 4983 0
-4983 4980 4979 0
-4983 4980 4946 0
-4981 4984 0
-4947 4984 0
-4984 4981 4947 0
-4982 4985 0
-4981 -4947 4985 0
-4985 4982 4981 0
-4985 4982 4947 0
-4983 4986 0
-4982 -4947 4986 0
-4986 4983 4982 0
-4986 4983 4947 0
4986 0
-4987 57 0
-4987 71 0
4987 -57 -71 0
-4988 58 0
-4988 72 0
4988 -58 -72 0
-4989 59 0
-4989 73 0
4989 -59 -73 0
-4990 60 0
-4990 74 0
4990 -60 -74 0
-4991 61 0
-4991 75 0
4991 -61 -75 0
-4992 62 0
-4992 76 0
4992 -62 -76 0
-4993 63 0
-4993 77 0
4993 -63 -77 0
-4994 64 0
-4994 78 0
4994 -64 -78 0
-4995 65 0
-4995 79 0
4995 -65 -79 0
-4996 66 0
-4996 80 0
4996 -66 -80 0
-4997 67 0
-4997 81 0
4997 -67 -81 0
-4998 68 0
-4998 82 0
4998 -68 -82 0
-4999 69 0
-4999 83 0
4999 -69 -83 0
-5000 70 0
-5000 84 0
5000 -70 -84 0
-4987 5001 0
-5001 4987 0
-5001 5002 0
-4988 5002 0
-5002 5001 4988 0
-5001 -4988 5003 0
-5003 5001 0
-5003 4988 0
-5002 5004 0
-4989 5004 0
-5004 5002 4989 0
-5003 5005 0
-5002 -4989 5005 0
-5005 5003 5002 0
-5005 5003 4989 0
-5003 -4989 5006 0
-5006 5003 0
-5006 4989 0
-5004 5007 0
-4990 5007 0
-5007 5004 4990 0
-5005 5008 0
-5004 -4990 5008 0
-5008 5005 5004 0
-5008 5005 4990 0
-5006 5009 0
-5005 -4990 5009 0
-5009 5006 5005 0
-5009 5006 4990 0
-5007 5010 0
-4991 5010 0
-5010 5007 4991 0
-5008 5011 0
-5007 -4991 5011 0
-5011 5008 5007 0
-5011 5008 4991 0
-5009 5012 0
-5008 -4991 5012 0
-5012 5009 5008 0
-5012 5009 4991 0
-5010 5013 0
-4992 5013 0
-5013 5010 4992 0
-5011 5014 0
-5010 -4992 5014 0
-5014 5011 5010 0
-5014 5011 4992 0
-5012 5015 0
-5011 -4992 5015 0
-5015 5012 5011 0
-5015 5012 4992 0
-5013 5016 0
-4993 5016 0
-5016 5013 4993 0
-5014 5017 0
-5013 -4993 5017 0
-5017 5014 5013 0
-5017 5014 4993 0
-5015 5018 0
-5014 -4993 5018 0
-5018 5015 5014 0
-5018 5015 4993 0
-5016 5019 0
-4994 5019 0
-5019 5016 4994 0
-5017 5020 0
-5016 -4994 5020 0
-5020 5017 5016 0
-5020 5017 4994 0
-5018 5021 0
-5017 -4994 5021 0
-5021 5018 5017 0
-5021 5018 4994 0
-5019 5022 0
-4995 5022 0
-5022 5019 4995 0
-5020 5023 0
-5019 -4995 5023 0
-5023 5020 5019 0
-5023 5020 4995 0
-5021 5024 0
-5020 -4995 5024 0
-5024 5021 5020 0
-5024 5021 4995 0
-5022 5025 0
-4996 5025 0
-5025 5022 4996 0
-5023 5026 0
-5022 -4996 5026 0
-5026 5023 5022 0
-5026 5023 4996 0
-5024 5027 0
-5023 -4996 5027 0
-5027 5024 5023 0
-5027 5024 4996 0
-5025 5028 0
-4997 5028 0
-5028 5025 4997 0
-5026 5029 0
-5025 -4997 5029 0
-5029 5026 5025 0
-5029 5026 4997 0
-5027 5030 0
-5026 -4997 5030 0
-5030 5027 5026 0
-5030 5027 4997 0
-5028 5031 0
-4998 5031 0
-5031 5028 4998 0
-5029 5032 0
-5028 -4998 5032 0
-5032 5029 5028 0
-5032 5029 4998 0
-5030 5033 0
-5029 -4998 5033 0
-5033 5030 5029 0
-5033 5030 4998 0
-5031 5034 0
-4999 5034 0
-5034 5031 4999 0
-5032 5035 0
-5031 -4999 5035 0
-5035 5032 5031 0
-5035 5032 4999 0
-5033 5036 0
-5032 -4999 5036 0
-5036 5033 5032 0
-5036 5033 4999 0
-5034 5037 0
-5000 5037 0
-5037 5034 5000 0
-5035 5038 0
-5034 -5000 5038 0
-5038 5035 5034 0
-5038 5035 5000 0
-5036 5039 0
-5035 -5000 5039 0
-5039 5036 5035 0
-5039 5036 5000 0
5039 0
-5040 57 0
-5040 85 0
5040 -57 -85 0
-5041 58 0
-5041 86 0
5041 -58 -86 0
-5042 59 0
-5042 87 0
5042 -59 -87 0
-5043 60 0
-5043 88 0
5043 -60 -88 0
-5044 61 0
-5044 89 0
5044 -61 -89 0
-5045 62 0
-5045 90 0
5045 -62 -90 0
-5046 63 0
-5046 91 0
5046 -63 -91 0
-5047 64 0
-5047 92 0
5047 -64 -92 0
-5048 65 0
-5048 93 0
5048 -65 -93 0
-5049 66 0
-5049 94 0
5049 -66 -94 0
-5050 67 0
-5050 95 0
5050 -67 -95 0
-5051 68 0
-5051 96 0
5051 -68 -96 0
-5052 69 0
-5052 97 0
5052 -69 -97 0
-5053 70 0
-5053 98 0
5053 -70 -98 0
-5040 5054 0
-5054 5040 0
-5054 5055 0
-5041 5055 0
-5055 5054 5041 0
-5054 -5041 5056 0
-5056 5054 0
-5056 5041 0
-5055 5057 0
-5042 5057 0
-5057 5055 5042 0
-5056 5058 0
-5055 -5042 5058 0
-5058 5056 5055 0
-5058 5056 5042 0
-5056 -5042 5059 0
-5059 5056 0
-5059 5042 0
-5057 5060 0
-5043 5060 0
-5060 5057 5043 0
-5058 5061 0
-5057 -5043 5061 0
-5061 5058 5057 0
-5061 5058 5043 0
-5059 5062 0
-5058 -5043 5062 0
-5062 5059 5058 0
-5062 5059 5043 0
-5060 5063 0
-5044 5063 0
-5063 5060 5044 0
-5061 5064 0
-5060 -5044 5064 0
-5064 5061 5060 0
-5064 5061 5044 0
-5062 5065 0
-5061 -5044 5065 0
-5065 5062 5061 0
-5065 5062 5044 0
-5063 5066 0
-5045 5066 0
-5066 5063 5045 0
-5064 5067 0
-5063 -5045 5067 0
-5067 5064 5063 0
-5067 5064 5045 0
-5065 5068 0
-5064 -5045 5068 0
-5068 5065 5064 0
-5068 5065 5045 0
-5066 5069 0
-5046 5069 0
-5069 5066 5046 0
-5067 5070 0
-5066 -5046 5070 0
-5070 5067 5066 0
-5070 5067 5046 0
-5068 5071 0
-5067 -5046 5071 0
-5071 5068 5067 0
-5071 5068 5046 0
-5069 5072 0
-5047 5072 0
-5072 5069 5047 0
-5070 5073 0
-5069 -5047 5073 0
-5073 5070 5069 0
-5073 5070 5047 0
-5071 5074 0
-5070 -5047 5074 0
-5074 5071 5070 0
-5074 5071 5047 0
-5072 5075 0
-5048 5075 0
-5075 5072 5048 0
-5073 5076 0
-5072 -5048 5076 0
-5076 5073 5072 0
-5076 5073 5048 0
-5074 5077 0
-5073 -5048 5077 0
-5077 5074 5073 0
-5077 5074 5048 0
-5075 5078 0
-5049 5078 0
-5078 5075 5049 0
-5076 5079 0
-5075 -5049 5079 0
-5079 5076 5075 0
-5079 5076 5049 0
-5077 5080 0
-5076 -5049 5080 0
-5080 5077 5076 0
-5080 5077 5049 0
-5078 5081 0
-5050 5081 0
-5081 5078 5050 0
-5079 5082 0
-5078 -5050 5082 0
-5082 5079 5078 0
-5082 5079 5050 0
-5080 5083 0
-5079 -5050 5083 0
-5083 5080 5079 0
-5083 5080 5050 0
-5081 5084 0
-5051 5084 0
-5084 5081 5051 0
-5082 5085 0
-5081 -5051 5085 0
-5085 5082 5081 0
-5085 5082 5051 0
-5083 5086 0
-5082 -5051 5086 0
-5086 5083 5082 0
-5086 5083 5051 0
-5084 5087 0
-5052 5087 0
-5087 5084 5052 0
-5085 5088 0
-5084 -5052 5088 0
-5088 5085 5084 0
-5088 5085 5052 0
-5086 5089 0
-5085 -5052 5089 0
-5089 5086 5085 0
-5089 5086 5052 0
-5087 5090 0
-5053 5090 0
-5090 5087 5053 0
-5088 5091 0
-5087 -5053 5091 0
-5091 5088 5087 0
-5091 5088 5053 0
-5089 5092 0
-5088 -5053 5092 0
-5092 5089 5088 0
-5092 5089 5053 0
5092 0
-5093 57 0
-5093 99 0
5093 -57 -99 0
-5094 58 0
-5094 100 0
5094 -58 -100 0
-5095 59 0
-5095 101 0
5095 -59 -101 0
-5096 60 0
-5096 102 0
5096 -60 -102 0
-5097 61 0
-5097 103 0
5097 -61 -103 0
-5098 62 0
-5098 104 0
5098 -62 -104 0
-5099 63 0
-5099 105 0
5099 -63 -105 0
-5100 64 0
-5100 106 0
5100 -64 -106 0
-5101 65 0
-5101 107 0
5101 -65 -107 0
-5102 66 0
-5102 108 0
5102 -66 -108 0
-5103 67 0
-5103 109 0
5103 -67 -109 0
-5104 68 0
-5104 110 0
5104 -68 -110 0
-5105 69 0
-5105 111 0
5105 -69 -111 0
-5106 70 0
-5106 112 0
5106 -70 -112 0
-5093 5107 0
-5107 5093 0
-5107 5108 0
-5094 5108 0
-5108 5107 5094 0
-5107 -5094 5109 0
-5109 5107 0
-5109 5094 0
-5108 5110 0
-5095 5110 0
-5110 5108 5095 0
-5109 5111 0
-5108 -5095 5111 0
-5111 5109 5108 0
-5111 5109 5095 0
-5109 -5095 5112 0
-5112 5109 0
-5112 5095 0
-5110 5113 0
-5096 5113 0
-5113 5110 5096 0
-5111 5114 0
-5110 -5096 5114 0
-5114 5111 5110 0
-5114 5111 5096 0
-5112 5115 0
-5111 -5096 5115 0
-5115 5112 5111 0
-5115 5112 5096 0
-5113 5116 0
-5097 5116 0
-5116 5113 5097 0
-5114 5117 0
-5113 -5097 5117 0
-5117 5114 5113 0
-5117 5114 5097 0
-5115 5118 0
-5114 -5097 5118 0
-5118 5115 5114 0
-5118 5115 5097 0
-5116 5119 0
-5098 5119 0
-5119 5116 5098 0
-5117 5120 0
-5116 -5098 5120 0
-5120 5117 5116 0
-5120 5117 5098 0
-5118 5121 0
-5117 -5098 5121 0
-5121 5118 5117 0
-5121 5118 5098 0
-5119 5122 0
-5099 5122 0
-5122 5119 5099 0
-5120 5123 0
-5119 -5099 5123 0
-5123 5120 5119 0
-5123 5120 5099 0
-5121 5124 0
-5120 -5099 5124 0
-5124 5121 5120 0
-5124 5121 5099 0
-5122 5125 0
-5100 5125 0
-5125 5122 5100 0
-5123 5126 0
-5122 -5100 5126 0
-5126 5123 5122 0
-5126 5123 5100 0
-5124 5127 0
-5123 -5100 5127 0
-5127 5124 5123 0
-5127 5124 5100 0
-5125 5128 0
-5101 5128 0
-5128 5125 5101 0
-5126 5129 0
-5125 -5101 5129 0
-5129 5126 5125 0
-5129 5126 5101 0
-5127 5130 0
-5126 -5101 5130 0
-5130 5127 5126 0
-5130 5127 5101 0
-5128 5131 0
-5102 5131 0
-5131 5128 5102 0
-5129 5132 0
-5128 -5102 5132 0
-5132 5129 5128 0
-5132 5129 5102 0
-5130 5133 0
-5129 -5102 5133 0
-5133 5130 5129 0
-5133 5130 5102 0
-5131 5134 0
-5103 5134 0
-5134 5131 5103 0
-5132 5135 0
-5131 -5103 5135 0
-5135 5132 5131 0
-5135 5132 5103 0
-5133 5136 0
-5132 -5103 5136 0
-5136 5133 5132 0
-5136 5133 5103 0
-5134 5137 0
-5104 5137 0
-5137 5134 5104 0
-5135 5138 0
-5134 -5104 5138 0
-5138 5135 5134 0
-5138 5135 5104 0
-5136 5139 0
-5135 -5104 5139 0
-5139 5136 5135 0
-5139 5136 5104 0
-5137 5140 0
-5105 5140 0
-5140 5137 5105 0
-5138 5141 0
-5137 -5105 5141 0
-5141 5138 5137 0
-5141 5138 5105 0
-5139 5142 0
-5138 -5105 5142 0
-5142 5139 5138 0
-5142 5139 5105 0
-5140 5143 0
-5106 5143 0
-5143 5140 5106 0
-5141 5144 0
-5140 -5106 5144 0
-5144 5141 5140 0
-5144 5141 5106 0
-5142 5145 0
-5141 -5106 5145 0
-5145 5142 5141 0
-5145 5142 5106 0
5145 0
-5146 57 0
-5146 113 0
5146 -57 -113 0
-5147 58 0
-5147 114 0
5147 -58 -114 0
-5148 59 0
-5148 115 0
5148 -59 -115 0
-5149 60 0
-5149 116 0
5149 -60 -116 0
-5150 61 0
-5150 117 0
5150 -61 -117 0
-5151 62 0
-5151 118 0
5151 -62 -118 0
-5152 63 0
-5152 119 0
5152 -63 -119 0
-5153 64 0
-5153 120 0
5153 -64 -120 0
-5154 65 0
-5154 121 0
5154 -65 -121 0
-5155 66 0
-5155 122 0
5155 -66 -122 0
-5156 67 0
-5156 123 0
5156 -67 -123 0
-5157 68 0
-5157 124 0
5157 -68 -124 0
-5158 69 0
-5158 125 0
5158 -69 -125 0
-5159 70 0
-5159 126 0
5159 -70 -126 0
-5146 5160 0
-5160 5146 0
-5160 5161 0
-5147 5161 0
-5161 5160 5147 0
-5160 -5147 5162 0
-5162 5160 0
-5162 5147 0
-5161 5163 0
-5148 5163 0
-5163 5161 5148 0
-5162 5164 0
-5161 -5148 5164 0
-5164 5162 5161 0
-5164 5162 5148 0
-5162 -5148 5165 0
-5165 5162 0
-5165 5148 0
-5163 5166 0
-5149 5166 0
-5166 5163 5149 0
-5164 5167 0
-5163 -5149 5167 0
-5167 5164 5163 0
-5167 5164 5149 0
-5165 5168 0
-5164 -5149 5168 0
-5168 5165 5164 0
-5168 5165 5149 0
-5166 5169 0
-5150 5169 0
-5169 5166 5150 0
-5167 5170 0
-5166 -5150 5170 0
-5170 5167 5166 0
-5170 5167 5150 0
-5168 5171 0
-5167 -5150 5171 0
-5171 5168 5167 0
-5171 5168 5150 0
-5169 5172 0
-5151 5172 0
-5172 5169 5151 0
-5170 5173 0
-5169 -5151 5173 0
-5173 5170 5169 0
-5173 5170 5151 0
-5171 5174 0
-5170 -5151 5174 0
-5174 5171 5170 0
-5174 5171 5151 0
-5172 5175 0
-5152 5175 0
-5175 5172 5152 0
-5173 5176 0
-5172 -5152 5176 0
-5176 5173 5172 0
-5176 5173 5152 0
-5174 5177 0
-5173 -5152 5177 0
-5177 5174 5173 0
-5177 5174 5152 0
-5175 5178 0
-5153 5178 0
-5178 5175 5153 0
-5176 5179 0
-5175 -5153 5179 0
-5179 5176 5175 0
-5179 5176 5153 0
-5177 5180 0
-5176 -5153 5180 0
-5180 5177 5176 0
-5180 5177 5153 0
-5178 5181 0
-5154 5181 0
-5181 5178 5154 0
-5179 5182 0
-5178 -5154 5182 0
-5182 5179 5178 0
-5182 5179 5154 0
-5180 5183 0
-5179 -5154 5183 0
-5183 5180 5179 0
-5183 5180 5154 0
-5181 5184 0
-5155 5184 0
-5184 5181 5155 0
-5182 5185 0
-5181 -5155 5185 0
-5185 5182 5181 0
-5185 5182 5155 0
-5183 5186 0
-5182 -5155 5186 0
-5186 5183 5182 0
-5186 5183 5155 0
-5184 5187 0
-5156 5187 0
-5187 5184 5156 0
-5185 5188 0
-5184 -5156 5188 0
-5188 5185 5184 0
-5188 5185 5156 0
-5186 5189 0
-5185 -5156 5189 0
-5189 5186 5185 0
-5189 5186 5156 0
-5187 5190 0
-5157 5190 0
-5190 5187 5157 0
-5188 5191 0
-5187 -5157 5191 0
-5191 5188 5187 0
-5191 5188 5157 0
-5189 5192 0
-5188 -5157 5192 0
-5192 5189 5188 0
-5192 5189 5157 0
-5190 5193 0
-5158 5193 0
-5193 5190 5158 0
-5191 5194 0
-5190 -5158 5194 0
-5194 5191 5190 0
-5194 5191 5158 0
-5192 5195 0
-5191 -5158 5195 0
-5195 5192 5191 0
-5195 5192 5158 0
-5193 5196 0
-5159 5196 0
-5196 5193 5159 0
-5194 5197 0
-5193 -5159 5197 0
-5197 5194 5193 0
-5197 5194 5159 0
-5195 5198 0
-5194 -5159 5198 0
-5198 5195 5194 0
-5198 5195 5159 0
5198 0
-5199 57 0
-5199 127 0
5199 -57 -127 0
-5200 58 0
-5200 128 0
5200 -58 -128 0
-5201 59 0
-5201 129 0
5201 -59 -129 0
-5202 60 0
-5202 130 0
5202 -60 -130 0
-5203 61 0
-5203 131 0
5203 -61 -131 0
-5204 62 0
-5204 132 0
5204 -62 -132 0
-5205 63 0
-5205 133 0
5205 -63 -133 0
-5206 64 0
-5206 134 0
5206 -64 -134 0
-5207 65 0
-5207 135 0
5207 -65 -135 0
-5208 66 0
-5208 136 0
5208 -66 -136 0
-5209 67 0
-5209 137 0
5209 -67 -137 0
-5210 68 0
-5210 138 0
5210 -68 -138 0
-5211 69 0
-5211 139 0
5211 -69 -139 0
-5212 70 0
-5212 140 0
5212 -70 -140 0
-5199 5213 0
-5213 5199 0
-5213 5214 0
-5200 5214 0
-5214 5213 5200 0
-5213 -5200 5215 0
-5215 5213 0
-5215 5200 0
-5214 5216 0
-5201 5216 0
-5216 5214 5201 0
-5215 5217 0
-5214 -5201 5217 0
-5217 5215 5214 0
-5217 5215 5201 0
-5215 -5201 5218 0
-5218 5215 0
-5218 5201 0
-5216 5219 0
-5202 5219 0
-5219 5216 5202 0
-5217 5220 0
-5216 -5202 5220 0
-5220 5217 5216 0
-5220 5217 5202 0
-5218 5221 0
-5217 -5202 5221 0
-5221 5218 5217 0
-5221 5218 5202 0
-5219 5222 0
-5203 5222 0
-5222 5219 5203 0
-5220 5223 0
-5219 -5203 5223 0
-5223 5220 5219 0
-5223 5220 5203 0
-5221 5224 0
-5220 -5203 5224 0
-5224 5221 5220 0
-5224 5221 5203 0
-5222 5225 0
-5204 5225 0
-5225 5222 5204 0
-5223 5226 0
-5222 -5204 5226 0
-5226 5223 5222 0
-5226 5223 5204 0
-5224 5227 0
-5223 -5204 5227 0
-5227 5224 5223 0
-5227 5224 5204 0
-5225 5228 0
-5205 5228 0
-5228 5225 5205 0
-5226 5229 0
-5225 -5205 5229 0
-5229 5226 5225 0
-5229 5226 5205 0
-5227 5230 0
-5226 -5205 5230 0
-5230 5227 5226 0
-5230 5227 5205 0
-5228 5231 0
-5206 5231 0
-5231 5228 5206 0
-5229 5232 0
-5228 -5206 5232 0
-5232 5229 5228 0
-5232 5229 5206 0
-5230 5233 0
-5229 -5206 5233 0
-5233 5230 5229 0
-5233 5230 5206 0
-5231 5234 0
-5207 5234 0
-5234 5231 5207 0
-5232 5235 0
-5231 -5207 5235 0
-5235 5232 5231 0
-5235 5232 5207 0
-5233 5236 0
-5232 -5207 5236 0
-5236 5233 5232 0
-5236 5233 5207 0
-5234 5237 0
-5208 5237 0
-5237 5234 5208 0
-5235 5238 0
-5234 -5208 5238 0
-5238 5235 5234 0
-5238 5235 5208 0
-5236 5239 0
-5235 -5208 5239 0
-5239 5236 5235 0
-5239 5236 5208 0
-5237 5240 0
-5209 5240 0
-5240 5237 5209 0
-5238 5241 0
-5237 -5209 5241 0
-5241 5238 5237 0
-5241 5238 5209 0
-5239 5242 0
-5238 -5209 5242 0
-5242 5239 5238 0
-5242 5239 5209 0
-5240 5243 0
-5210 5243 0
-5243 5240 5210 0
-5241 5244 0
-5240 -5210 5244 0
-5244 5241 5240 0
-5244 5241 5210 0
-5242 5245 0
-5241 -5210 5245 0
-5245 5242 5241 0
-5245 5242 5210 0
-5243 5246 0
-5211 5246 0
-5246 5243 5211 0
-5244 5247 0
-5243 -5211 5247 0
-5247 5244 5243 0
-5247 5244 5211 0
-5245 5248 0
-5244 -5211 5248 0
-5248 5245 5244 0
-5248 5245 5211 0
-5246 5249 0
-5212 5249 0
-5249 5246 5212 0
-5247 5250 0
-5246 -5212 5250 0
-5250 5247 5246 0
-5250 5247 5212 0
-5248 5251 0
-5247 -5212 5251 0
-5251 5248 5247 0
-5251 5248 5212 0
5251 0
-5252 57 0
-5252 141 0
5252 -57 -141 0
-5253 58 0
-5253 142 0
5253 -58 -142 0
-5254 59 0
-5254 143 0
5254 -59 -143 0
-5255 60 0
-5255 144 0
5255 -60 -144 0
-5256 61 0
-5256 145 0
5256 -61 -145 0
-5257 62 0
-5257 146 0
5257 -62 -146 0
-5258 63 0
-5258 147 0
5258 -63 -147 0
-5259 64 0
-5259 148 0
5259 -64 -148 0
-5260 65 0
-5260 149 0
5260 -65 -149 0
-5261 66 0
-5261 150 0
5261 -66 -150 0
-5262 67 0
-5262 151 0
5262 -67 -151 0
-5263 68 0
-5263 152 0
5263 -68 -152 0
-5264 69 0
-5264 153 0
5264 -69 -153 0
-5265 70 0
-5265 154 0
5265 -70 -154 0
-5252 5266 0
-5266 5252 0
-5266 5267 0
-5253 5267 0
-5267 5266 5253 0
-5266 -5253 5268 0
-5268 5266 0
-5268 5253 0
-5267 5269 0
-5254 5269 0
-5269 5267 5254 0
-5268 5270 0
-5267 -5254 5270 0
-5270 5268 5267 0
-5270 5268 5254 0
-5268 -5254 5271 0
-5271 5268 0
-5271 5254 0
-5269 5272 0
-5255 5272 0
-5272 5269 5255 0
-5270 5273 0
-5269 -5255 5273 0
-5273 5270 5269 0
-5273 5270 5255 0
-5271 5274 0
-5270 -5255 5274 0
-5274 5271 5270 0
-5274 5271 5255 0
-5272 5275 0
-5256 5275 0
-5275 5272 5256 0
-5273 5276 0
-5272 -5256 5276 0
-5276 5273 5272 0
-5276 5273 5256 0
-5274 5277 0
-5273 -5256 5277 0
-5277 5274 5273 0
-5277 5274 5256 0
-5275 5278 0
-5257 5278 0
-5278 5275 5257 0
-5276 5279 0
-5275 -5257 5279 0
-5279 5276 5275 0
-5279 5276 5257 0
-5277 5280 0
-5276 -5257 5280 0
-5280 5277 5276 0
-5280 5277 5257 0
-5278 5281 0
-5258 5281 0
-5281 5278 5258 0
-5279 5282 0
-5278 -5258 5282 0
-5282 5279 5278 0
-5282 5279 5258 0
-5280 5283 0
-5279 -5258 5283 0
-5283 5280 5279 0
-5283 5280 5258 0
-5281 5284 0
-5259 5284 0
-5284 5281 5259 0
-5282 5285 0
-5281 -5259 5285 0
-5285 5282 5281 0
-5285 5282 5259 0
-5283 5286 0
-5282 -5259 5286 0
-5286 5283 5282 0
-5286 5283 5259 0
-5284 5287 0
-5260 5287 0
-5287 5284 5260 0
-5285 5288 0
-5284 -5260 5288 0
-5288 5285 5284 0
-5288 5285 5260 0
-5286 5289 0
-5285 -5260 5289 0
-5289 5286 5285 0
-5289 5286 5260 0
-5287 5290 0
-5261 5290 0
-5290 5287 5261 0
-5288 5291 0
-5287 -5261 5291 0
-5291 5288 5287 0
-5291 5288 5261 0
-5289 5292 0
-5288 -5261 5292 0
-5292 5289 5288 0
-5292 5289 5261 0
-5290 5293 0
-5262 5293 0
-5293 5290 5262 0
-5291 5294 0
-5290 -5262 5294 0
-5294 5291 5290 0
-5294 5291 5262 0
-5292 5295 0
-5291 -5262 5295 0
-5295 5292 5291 0
-5295 5292 5262 0
-5293 5296 0
-5263 5296 0
-5296 5293 5263 0
-5294 5297 0
-5293 -5263 5297 0
-5297 5294 5293 0
-5297 5294 5263 0
-5295 5298 0
-5294 -5263 5298 0
-5298 5295 5294 0
-5298 5295 5263 0
-5296 5299 0
-5264 5299 0
-5299 5296 5264 0
-5297 5300 0
-5296 -5264 5300 0
-5300 5297 5296 0
-5300 5297 5264 0
-5298 5301 0
-5297 -5264 5301 0
-5301 5298 5297 0
-5301 5298 5264 0
-5299 5302 0
-5265 5302 0
-5302 5299 5265 0
-5300 5303 0
-5299 -5265 5303 0
-5303 5300 5299 0
-5303 5300 5265 0
-5301 5304 0
-5300 -5265 5304 0
-5304 5301 5300 0
-5304 5301 5265 0
5304 0
-5305 57 0
-5305 155 0
5305 -57 -155 0
-5306 58 0
-5306 156 0
5306 -58 -156 0
-5307 59 0
-5307 157 0
5307 -59 -157 0
-5308 60 0
-5308 158 0
5308 -60 -158 0
-5309 61 0
-5309 159 0
5309 -61 -159 0
-5310 62 0
-5310 160 0
5310 -62 -160 0
-5311 63 0
-5311 161 0
5311 -63 -161 0
-5312 64 0
-5312 162 0
5312 -64 -162 0
-5313 65 0
-5313 163 0
5313 -65 -163 0
-5314 66 0
-5314 164 0
5314 -66 -164 0
-5315 67 0
-5315 165 0
5315 -67 -165 0
-5316 68 0
-5316 166 0
5316 -68 -166 0
-5317 69 0
-5317 167 0
5317 -69 -167 0
-5318 70 0
-5318 168 0
5318 -70 -168 0
-5305 5319 0
-5319 5305 0
-5319 5320 0
-5306 5320 0
-5320 5319 5306 0
-5319 -5306 5321 0
-5321 5319 0
-5321 5306 0
-5320 5322 0
-5307 5322 0
-5322 5320 5307 0
-5321 5323 0
-5320 -5307 5323 0
-5323 5321 5320 0
-5323 5321 5307 0
-5321 -5307 5324 0
-5324 5321 0
-5324 5307 0
-5322 5325 0
-5308 5325 0
-5325 5322 5308 0
-5323 5326 0
-5322 -5308 5326 0
-5326 5323 5322 0
-5326 5323 5308 0
-5324 5327 0
-5323 -5308 5327 0
-5327 5324 5323 0
-5327 5324 5308 0
-5325 5328 0
-5309 5328 0
-5328 5325 5309 0
-5326 5329 0
-5325 -5309 5329 0
-5329 5326 5325 0
-5329 5326 5309 0
-5327 5330 0
-5326 -5309 5330 0
-5330 5327 5326 0
-5330 5327 5309 0
-5328 5331 0
-5310 5331 0
-5331 5328 5310 0
-5329 5332 0
-5328 -5310 5332 0
-5332 5329 5328 0
-5332 5329 5310 0
-5330 5333 0
-5329 -5310 5333 0
-5333 5330 5329 0
-5333 5330 5310 0
-5331 5334 0
-5311 5334 0
-5334 5331 5311 0
-5332 5335 0
-5331 -5311 5335 0
-5335 5332 5331 0
-5335 5332 5311 0
-5333 5336 0
-5332 -5311 5336 0
-5336 5333 5332 0
-5336 5333 5311 0
-5334 5337 0
-5312 5337 0
-5337 5334 5312 0
-5335 5338 0
-5334 -5312 5338 0
-5338 5335 5334 0
-5338 5335 5312 0
-5336 5339 0
-5335 -5312 5339 0
-5339 5336 5335 0
-5339 5336 5312 0
-5337 5340 0
-5313 5340 0
-5340 5337 5313 0
-5338 5341 0
-5337 -5313 5341 0
-5341 5338 5337 0
-5341 5338 5313 0
-5339 5342 0
-5338 -5313 5342 0
-5342 5339 5338 0
-5342 5339 5313 0
-5340 5343 0
-5314 5343 0
-5343 5340 5314 0
-5341 5344 0
-5340 -5314 5344 0
-5344 5341 5340 0
-5344 5341 5314 0
-5342 5345 0
-5341 -5314 5345 0
-5345 5342 5341 0
-5345 5342 5314 0
-5343 5346 0
-5315 5346 0
-5346 5343 5315 0
-5344 5347 0
-5343 -5315 5347 0
-5347 5344 5343 0
-5347 5344 5315 0
-5345 5348 0
-5344 -5315 5348 0
-5348 5345 5344 0
-5348 5345 5315 0
-5346 5349 0
-5316 5349 0
-5349 5346 5316 0
-5347 5350 0
-5346 -5316 5350 0
-5350 5347 5346 0
-5350 5347 5316 0
-5348 5351 0
-5347 -5316 5351 0
-5351 5348 5347 0
-5351 5348 5316 0
-5349 5352 0
-5317 5352 0
-5352 5349 5317 0
-5350 5353 0
-5349 -5317 5353 0
-5353 5350 5349 0
-5353 5350 5317 0
-5351 5354 0
-5350 -5317 5354 0
-5354 5351 5350 0
-5354 5351 5317 0
-5352 5355 0
-5318 5355 0
-5355 5352 5318 0
-5353 5356 0
-5352 -5318 5356 0
-5356 5353 5352 0
-5356 5353 5318 0
-5354 5357 0
-5353 -5318 5357 0
-5357 5354 5353 0
-5357 5354 5318 0
5357 0
-5358 57 0
-5358 169 0
5358 -57 -169 0
-5359 58 0
-5359 170 0
5359 -58 -170 0
-5360 59 0
-5360 171 0
5360 -59 -171 0
-5361 60 0
-5361 172 0
5361 -60 -172 0
-5362 61 0
-5362 173 0
5362 -61 -173 0
-5363 62 0
-5363 174 0
5363 -62 -174 0
-5364 63 0
-5364 175 0
5364 -63 -175 0
-5365 64 0
-5365 176 0
5365 -64 -176 0
-5366 65 0
-5366 177 0
5366 -65 -177 0
-5367 66 0
-5367 178 0
5367 -66 -178 0
-5368 67 0
-5368 179 0
5368 -67 -179 0
-5369 68 0
-5369 180 0
5369 -68 -180 0
-5370 69 0
-5370 181 0
5370 -69 -181 0
-5371 70 0
-5371 182 0
5371 -70 -182 0
-5358 5372 0
-5372 5358 0
-5372 5373 0
-5359 5373 0
-5373 5372 5359 0
-5372 -5359 5374 0
-5374 5372 0
-5374 5359 0
-5373 5375 0
-5360 5375 0
-5375 5373 5360 0
-5374 5376 0
-5373 -5360 5376 0
-5376 5374 5373 0
-5376 5374 5360 0
-5374 -5360 5377 0
-5377 5374 0
-5377 5360 0
-5375 5378 0
-5361 5378 0
-5378 5375 5361 0
-5376 5379 0
-5375 -5361 5379 0
-5379 5376 5375 0
-5379 5376 5361 0
-5377 5380 0
-5376 -5361 5380 0
-5380 5377 5376 0
-5380 5377 5361 0
-5378 5381 0
-5362 5381 0
-5381 5378 5362 0
-5379 5382 0
-5378 -5362 5382 0
-5382 5379 5378 0
-5382 5379 5362 0
-5380 5383 0
-5379 -5362 5383 0
-5383 5380 5379 0
-5383 5380 5362 0
-5381 5384 0
-5363 5384 0
-5384 5381 5363 0
-5382 5385 0
-5381 -5363 5385 0
-5385 5382 5381 0
-5385 5382 5363 0
-5383 5386 0
-5382 -5363 5386 0
-5386 5383 5382 0
-5386 5383 5363 0
-5384 5387 0
-5364 5387 0
-5387 5384 5364 0
-5385 5388 0
-5384 -5364 5388 0
-5388 5385 5384 0
-5388 5385 5364 0
-5386 5389 0
-5385 -5364 5389 0
-5389 5386 5385 0
-5389 5386 5364 0
-5387 5390 0
-5365 5390 0
-5390 5387 5365 0
-5388 5391 0
-5387 -5365 5391 0
-5391 5388 5387 0
-5391 5388 5365 0
-5389 5392 0
-5388 -5365 5392 0
-5392 5389 5388 0
-5392 5389 5365 0
-5390 5393 0
-5366 5393 0
-5393 5390 5366 0
-5391 5394 0
-5390 -5366 5394 0
-5394 5391 5390 0
-5394 5391 5366 0
-5392 5395 0
-5391 -5366 5395 0
-5395 5392 5391 0
-5395 5392 5366 0
-5393 5396 0
-5367 5396 0
-5396 5393 5367 0
-5394 5397 0
-5393 -5367 5397 0
-5397 5394 5393 0
-5397 5394 5367 0
-5395 5398 0
-5394 -5367 5398 0
-5398 5395 5394 0
-5398 5395 5367 0
-5396 5399 0
-5368 5399 0
-5399 5396 5368 0
-5397 5400 0
-5396 -5368 5400 0
-5400 5397 5396 0
-5400 5397 5368 0
-5398 5401 0
-5397 -5368 5401 0
-5401 5398 5397 0
-5401 5398 5368 0
-5399 5402 0
-5369 5402 0
-5402 5399 5369 0
-5400 5403 0
-5399 -5369 5403 0
-5403 5400 5399 0
-5403 5400 5369 0
-5401 5404 0
-5400 -5369 5404 0
-5404 5401 5400 0
-5404 5401 5369 0
-5402 5405 0
-5370 5405 0
-5405 5402 5370 0
-5403 5406 0
-5402 -5370 5406 0
-5406 5403 5402 0
-5406 5403 5370 0
-5404 5407 0
-5403 -5370 5407 0
-5407 5404 5403 0
-5407 5404 5370 0
-5405 5408 0
-5371 5408 0
-5408 5405 5371 0
-5406 5409 0
-5405 -5371 5409 0
-5409 5406 5405 0
-5409 5406 5371 0
-5407 5410 0
-5406 -5371 5410 0
-5410 5407 5406 0
-5410 5407 5371 0
5410 0
-5411 57 0
-5411 183 0
5411 -57 -183 0
-5412 58 0
-5412 184 0
5412 -58 -184 0
-5413 59 0
-5413 185 0
5413 -59 -185 0
-5414 60 0
-5414 186 0
5414 -60 -186 0
-5415 61 0
-5415 187 0
5415 -61 -187 0
-5416 62 0
-5416 188 0
5416 -62 -188 0
-5417 63 0
-5417 189 0
5417 -63 -189 0
-5418 64 0
-5418 190 0
5418 -64 -190 0
-5419 65 0
-5419 191 0
5419 -65 -191 0
-5420 66 0
-5420 192 0
5420 -66 -192 0
-5421 67 0
-5421 193 0
5421 -67 -193 0
-5422 68 0
-5422 194 0
5422 -68 -194 0
-5423 69 0
-5423 195 0
5423 -69 -195 0
-5424 70 0
-5424 196 0
5424 -70 -196 0
-5411 5425 0
-5425 5411 0
-5425 5426 0
-5412 5426 0
-5426 5425 5412 0
-5425 -5412 5427 0
-5427 5425 0
-5427 5412 0
-5426 5428 0
-5413 5428 0
-5428 5426 5413 0
-5427 5429 0
-5426 -5413 5429 0
-5429 5427 5426 0
-5429 5427 5413 0
-5427 -5413 5430 0
-5430 5427 0
-5430 5413 0
-5428 5431 0
-5414 5431 0
-5431 5428 5414 0
-5429 5432 0
-5428 -5414 5432 0
-5432 5429 5428 0
-5432 5429 5414 0
-5430 5433 0
-5429 -5414 5433 0
-5433 5430 5429 0
-5433 5430 5414 0
-5431 5434 0
-5415 5434 0
-5434 5431 5415 0
-5432 5435 0
-5431 -5415 5435 0
-5435 5432 5431 0
-5435 5432 5415 0
-5433 5436 0
-5432 -5415 5436 0
-5436 5433 5432 0
-5436 5433 5415 0
-5434 5437 0
-5416 5437 0
-5437 5434 5416 0
-5435 5438 0
-5434 -5416 5438 0
-5438 5435 5434 0
-5438 5435 5416 0
-5436 5439 0
-5435 -5416 5439 0
-5439 5436 5435 0
-5439 5436 5416 0
-5437 5440 0
-5417 5440 0
-5440 5437 5417 0
-5438 5441 0
-5437 -5417 5441 0
-5441 5438 5437 0
-5441 5438 5417 0
-5439 5442 0
-5438 -5417 5442 0
-5442 5439 5438 0
-5442 5439 5417 0
-5440 5443 0
-5418 5443 0
-5443 5440 5418 0
-5441 5444 0
-5440 -5418 5444 0
-5444 5441 5440 0
-5444 5441 5418 0
-5442 5445 0
-5441 -5418 5445 0
-5445 5442 5441 0
-5445 5442 5418 0
-5443 5446 0
-5419 5446 0
-5446 5443 5419 0
-5444 5447 0
-5443 -5419 5447 0
-5447 5444 5443 0
-5447 5444 5419 0
-5445 5448 0
-5444 -5419 5448 0
-5448 5445 5444 0
-5448 5445 5419 0
-5446 5449 0
-5420 5449 0
-5449 5446 5420 0
-5447 5450 0
-5446 -5420 5450 0
-5450 5447 5446 0
-5450 5447 5420 0
-5448 5451 0
-5447 -5420 5451 0
-5451 5448 5447 0
-5451 5448 5420 0
-5449 5452 0
-5421 5452 0
-5452 5449 5421 0
-5450 5453 0
-5449 -5421 5453 0
-5453 5450 5449 0
-5453 5450 5421 0
-5451 5454 0
-5450 -5421 5454 0
-5454 5451 5450 0
-5454 5451 5421 0
-5452 5455 0
-5422 5455 0
-5455 5452 5422 0
-5453 5456 0
-5452 -5422 5456 0
-5456 5453 5452 0
-5456 5453 5422 0
-5454 5457 0
-5453 -5422 5457 0
-5457 5454 5453 0
-5457 5454 5422 0
-5455 5458 0
-5423 5458 0
-5458 5455 5423 0
-5456 5459 0
-5455 -5423 5459 0
-5459 5456 5455 0
-5459 5456 5423 0
-5457 5460 0
-5456 -5423 5460 0
-5460 5457 5456 0
-5460 5457 5423 0
-5458 5461 0
-5424 5461 0
-5461 5458 5424 0
-5459 5462 0
-5458 -5424 5462 0
-5462 5459 5458 0
-5462 5459 5424 0
-5460 5463 0
-5459 -5424 5463 0
-5463 5460 5459 0
-5463 5460 5424 0
5463 0
-5464 71 0
-5464 85 0
5464 -71 -85 0
-5465 72 0
-5465 86 0
5465 -72 -86 0
-5466 73 0
-5466 87 0
5466 -73 -87 0
-5467 74 0
-5467 88 0
5467 -74 -88 0
-5468 75 0
-5468 89 0
5468 -75 -89 0
-5469 76 0
-5469 90 0
5469 -76 -90 0
-5470 77 0
-5470 91 0
5470 -77 -91 0
-5471 78 0
-5471 92 0
5471 -78 -92 0
-5472 79 0
-5472 93 0
5472 -79 -93 0
-5473 80 0
-5473 94 0
5473 -80 -94 0
-5474 81 0
-5474 95 0
5474 -81 -95 0
-5475 82 0
-5475 96 0
5475 -82 -96 0
-5476 83 0
-5476 97 0
5476 -83 -97 0
-5477 84 0
-5477 98 0
5477 -84 -98 0
-5464 5478 0
-5478 5464 0
-5478 5479 0
-5465 5479 0
-5479 5478 5465 0
-5478 -5465 5480 0
-5480 5478 0
-5480 5465 0
-5479 5481 0
-5466 5481 0
-5481 5479 5466 0
-5480 5482 0
-5479 -5466 5482 0
-5482 5480 5479 0
-5482 5480 5466 0
-5480 -5466 5483 0
-5483 5480 0
-5483 5466 0
-5481 5484 0
-5467 5484 0
-5484 5481 5467 0
-5482 5485 0
-5481 -5467 5485 0
-5485 5482 5481 0
-5485 5482 5467 0
-5483 5486 0
-5482 -5467 5486 0
-5486 5483 5482 0
-5486 5483 5467 0
-5484 5487 0
-5468 5487 0
-5487 5484 5468 0
-5485 5488 0
-5484 -5468 5488 0
-5488 5485 5484 0
-5488 5485 5468 0
-5486 5489 0
-5485 -5468 5489 0
-5489 5486 5485 0
-5489 5486 5468 0
-5487 5490 0
-5469 5490 0
-5490 5487 5469 0
-5488 5491 0
-5487 -5469 5491 0
-5491 5488 5487 0
-5491 5488 5469 0
-5489 5492 0
-5488 -5469 5492 0
-5492 5489 5488 0
-5492 5489 5469 0
-5490 5493 0
-5470 5493 0
-5493 5490 5470 0
-5491 5494 0
-5490 -5470 5494 0
-5494 5491 5490 0
-5494 5491 5470 0
-5492 5495 0
-5491 -5470 5495 0
-5495 5492 5491 0
-5495 5492 5470 0
-5493 5496 0
-5471 5496 0
-5496 5493 5471 0
-5494 5497 0
-5493 -5471 5497 0
-5497 5494 5493 0
-5497 5494 5471 0
-5495 5498 0
-5494 -5471 5498 0
-5498 5495 5494 0
-5498 5495 5471 0
-5496 5499 0
-5472 5499 0
-5499 5496 5472 0
-5497 5500 0
-5496 -5472 5500 0
-5500 5497 5496 0
-5500 5497 5472 0
-5498 5501 0
-5497 -5472 5501 0
-5501 5498 5497 0
-5501 5498 5472 0
-5499 5502 0
-5473 5502 0
-5502 5499 5473 0
-5500 5503 0
-5499 -5473 5503 0
-5503 5500 5499 0
-5503 5500 5473 0
-5501 5504 0
-5500 -5473 5504 0
-5504 5501 5500 0
-5504 5501 5473 0
-5502 5505 0
-5474 5505 0
-5505 5502 5474 0
-5503 5506 0
-5502 -5474 5506 0
-5506 5503 5502 0
-5506 5503 5474 0
-5504 5507 0
-5503 -5474 5507 0
-5507 5504 5503 0
-5507 5504 5474 0
-5505 5508 0
-5475 5508 0
-5508 5505 5475 0
-5506 5509 0
-5505 -5475 5509 0
-5509 5506 5505 0
-5509 5506 5475 0
-5507 5510 0
-5506 -5475 5510 0
-5510 5507 5506 0
-5510 5507 5475 0
-5508 5511 0
-5476 5511 0
-5511 5508 5476 0
-5509 5512 0
-5508 -5476 5512 0
-5512 5509 5508 0
-5512 5509 5476 0
-5510 5513 0
-5509 -5476 5513 0
-5513 5510 5509 0
-5513 5510 5476 0
-5511 5514 0
-5477 5514 0
-5514 5511 5477 0
-5512 5515 0
-5511 -5477 5515 0
-5515 5512 5511 0
-5515 5512 5477 0
-5513 5516 0
-5512 -5477 5516 0
-5516 5513 5512 0
-5516 5513 5477 0
5516 0
-5517 71 0
-5517 99 0
5517 -71 -99 0
-5518 72 0
-5518 100 0
5518 -72 -100 0
-5519 73 0
-5519 101 0
5519 -73 -101 0
-5520 74 0
-5520 102 0
5520 -74 -102 0
-5521 75 0
-5521 103 0
5521 -75 -103 0
-5522 76 0
-5522 104 0
5522 -76 -104 0
-5523 77 0
-5523 105 0
5523 -77 -105 0
-5524 78 0
-5524 106 0
5524 -78 -106 0
-5525 79 0
-5525 107 0
5525 -79 -107 0
-5526 80 0
-5526 108 0
5526 -80 -108 0
-5527 81 0
-5527 109 0
5527 -81 -109 0
-5528 82 0
-5528 110 0
5528 -82 -110 0
-5529 83 0
-5529 111 0
5529 -83 -111 0
-5530 84 0
-5530 112 0
5530 -84 -112 0
-5517 5531 0
-5531 5517 0
-5531 5532 0
-5518 5532 0
-5532 5531 5518 0
-5531 -5518 5533 0
-5533 5531 0
-5533 5518 0
-5532 5534 0
-5519 5534 0
-5534 5532 5519 0
-5533 5535 0
-5532 -5519 5535 0
-5535 5533 5532 0
-5535 5533 5519 0
-5533 -5519 5536 0
-5536 5533 0
-5536 5519 0
-5534 5537 0
-5520 5537 0
-5537 5534 5520 0
-5535 5538 0
-5534 -5520 5538 0
-5538 5535 5534 0
-5538 5535 5520 0
-5536 5539 0
-5535 -5520 5539 0
-5539 5536 5535 0
-5539 5536 5520 0
-5537 5540 0
-5521 5540 0
-5540 5537 5521 0
-5538 5541 0
-5537 -5521 5541 0
-5541 5538 5537 0
-5541 5538 5521 0
-5539 5542 0
-5538 -5521 5542 0
-5542 5539 5538 0
-5542 5539 5521 0
-5540 5543 0
-5522 5543 0
-5543 5540 5522 0
-5541 5544 0
-5540 -5522 5544 0
-5544 5541 5540 0
-5544 5541 5522 0
-5542 5545 0
-5541 -5522 5545 0
-5545 5542 5541 0
-5545 5542 5522 0
-5543 5546 0
-5523 5546 0
-5546 5543 5523 0
-5544 5547 0
-5543 -5523 5547 0
-5547 5544 5543 0
-5547 5544 5523 0
-5545 5548 0
-5544 -5523 5548 0
-5548 5545 5544 0
-5548 5545 5523 0
-5546 5549 0
-5524 5549 0
-5549 5546 5524 0
-5547 5550 0
-5546 -5524 5550 0
-5550 5547 5546 0
-5550 5547 5524 0
-5548 5551 0
-5547 -5524 5551 0
-5551 5548 5547 0
-5551 5548 5524 0
-5549 5552 0
-5525 5552 0
-5552 5549 5525 0
-5550 5553 0
-5549 -5525 5553 0
-5553 5550 5549 0
-5553 5550 5525 0
-5551 5554 0
-5550 -5525 5554 0
-5554 5551 5550 0
-5554 5551 5525 0
-5552 5555 0
-5526 5555 0
-5555 5552 5526 0
-5553 5556 0
-5552 -5526 5556 0
-5556 5553 5552 0
-5556 5553 5526 0
-5554 5557 0
-5553 -5526 5557 0
-5557 5554 5553 0
-5557 5554 5526 0
-5555 5558 0
-5527 5558 0
-5558 5555 5527 0
-5556 5559 0
-5555 -5527 5559 0
-5559 5556 5555 0
-5559 5556 5527 0
-5557 5560 0
-5556 -5527 5560 0
-5560 5557 5556 0
-5560 5557 5527 0
-5558 5561 0
-5528 5561 0
-5561 5558 5528 0
-5559 5562 0
-5558 -5528 5562 0
-5562 5559 5558 0
-5562 5559 5528 0
-5560 5563 0
-5559 -5528 5563 0
-5563 5560 5559 0
-5563 5560 5528 0
-5561 5564 0
-5529 5564 0
-5564 5561 5529 0
-5562 5565 0
-5561 -5529 5565 0
-5565 5562 5561 0
-5565 5562 5529 0
-5563 5566 0
-5562 -5529 5566 0
-5566 5563 5562 0
-5566 5563 5529 0
-5564 5567 0
-5530 5567 0
-5567 5564 5530 0
-5565 5568 0
-5564 -5530 5568 0
-5568 5565 5564 0
-5568 5565 5530 0
-5566 5569 0
-5565 -5530 5569 0
-5569 5566 5565 0
-5569 5566 5530 0
5569 0
-5570 71 0
-5570 113 0
5570 -71 -113 0
-5571 72 0
-5571 114 0
5571 -72 -114 0
-5572 73 0
-5572 115 0
5572 -73 -115 0
-5573 74 0
-5573 116 0
5573 -74 -116 0
-5574 75 0
-5574 117 0
5574 -75 -117 0
-5575 76 0
-5575 118 0
5575 -76 -118 0
-5576 77 0
-5576 119 0
5576 -77 -119 0
-5577 78 0
-5577 120 0
5577 -78 -120 0
-5578 79 0
-5578 121 0
5578 -79 -121 0
-5579 80 0
-5579 122 0
5579 -80 -122 0
-5580 81 0
-5580 123 0
5580 -81 -123 0
-5581 82 0
-5581 124 0
5581 -82 -124 0
-5582 83 0
-5582 125 0
5582 -83 -125 0
-5583 84 0
-5583 126 0
5583 -84 -126 0
-5570 5584 0
-5584 5570 0
-5584 5585 0
-5571 5585 0
-5585 5584 5571 0
-5584 -5571 5586 0
-5586 5584 0
-5586 5571 0
-5585 5587 0
-5572 5587 0
-5587 5585 5572 0
-5586 5588 0
-5585 -5572 5588 0
-5588 5586 5585 0
-5588 5586 5572 0
-5586 -5572 5589 0
-5589 5586 0
-5589 5572 0
-5587 5590 0
-5573 5590 0
-5590 5587 5573 0
-5588 5591 0
-5587 -5573 5591 0
-5591 5588 5587 0
-5591 5588 5573 0
-5589 5592 0
-5588 -5573 5592 0
-5592 5589 5588 0
-5592 5589 5573 0
-5590 5593 0
-5574 5593 0
-5593 5590 5574 0
-5591 5594 0
-5590 -5574 5594 0
-5594 5591 5590 0
-5594 5591 5574 0
-5592 5595 0
-5591 -5574 5595 0
-5595 5592 5591 0
-5595 5592 5574 0
-5593 5596 0
-5575 5596 0
-5596 5593 5575 0
-5594 5597 0
-5593 -5575 5597 0
-5597 5594 5593 0
-5597 5594 5575 0
-5595 5598 0
-5594 -5575 5598 0
-5598 5595 5594 0
-5598 5595 5575 0
-5596 5599 0
-5576 5599 0
-5599 5596 5576 0
-5597 5600 0
-5596 -5576 5600 0
-5600 5597 5596 0
-5600 5597 5576 0
-5598 5601 0
-5597 -5576 5601 0
-5601 5598 5597 0
-5601 5598 5576 0
-5599 5602 0
-5577 5602 0
-5602 5599 5577 0
-5600 5603 0
-5599 -5577 5603 0
-5603 5600 5599 0
-5603 5600 5577 0
-5601 5604 0
-5600 -5577 5604 0
-5604 5601 5600 0
-5604 5601 5577 0
-5602 5605 0
-5578 5605 0
-5605 5602 5578 0
-5603 5606 0
-5602 -5578 5606 0
-5606 5603 5602 0
-5606 5603 5578 0
-5604 5607 0
-5603 -5578 5607 0
-5607 5604 5603 0
-5607 5604 5578 0
-5605 5608 0
-5579 5608 0
-5608 5605 5579 0
-5606 5609 0
-5605 -5579 5609 0
-5609 5606 5605 0
-5609 5606 5579 0
-5607 5610 0
-5606 -5579 5610 0
-5610 5607 5606 0
-5610 5607 5579 0
-5608 5611 0
-5580 5611 0
-5611 5608 5580 0
-5609 5612 0
-5608 -5580 5612 0
-5612 5609 5608 0
-5612 5609 5580 0
-5610 5613 0
-5609 -5580 5613 0
-5613 5610 5609 0
-5613 5610 5580 0
-5611 5614 0
-5581 5614 0
-5614 5611 5581 0
-5612 5615 0
-5611 -5581 5615 0
-5615 5612 5611 0
-5615 5612 5581 0
-5613 5616 0
-5612 -5581 5616 0
-5616 5613 5612 0
-5616 5613 5581 0
-5614 5617 0
-5582 5617 0
-5617 5614 5582 0
-5615 5618 0
-5614 -5582 5618 0
-5618 5615 5614 0
-5618 5615 5582 0
-5616 5619 0
-5615 -5582 5619 0
-5619 5616 5615 0
-5619 5616 5582 0
-5617 5620 0
-5583 5620 0
-5620 5617 5583 0
-5618 5621 0
-5617 -5583 5621 0
-5621 5618 5617 0
-5621 5618 5583 0
-5619 5622 0
-5618 -5583 5622 0
-5622 5619 5618 0
-5622 5619 5583 0
5622 0
-5623 71 0
-5623 127 0
5623 -71 -127 0
-5624 72 0
-5624 128 0
5624 -72 -128 0
-5625 73 0
-5625 129 0
5625 -73 -129 0
-5626 74 0
-5626 130 0
5626 -74 -130 0
-5627 75 0
-5627 131 0
5627 -75 -131 0
-5628 76 0
-5628 132 0
5628 -76 -132 0
-5629 77 0
-5629 133 0
5629 -77 -133 0
-5630 78 0
-5630 134 0
5630 -78 -134 0
-5631 79 0
-5631 135 0
5631 -79 -135 0
-5632 80 0
-5632 136 0
5632 -80 -136 0
-5633 81 0
-5633 137 0
5633 -81 -137 0
-5634 82 0
-5634 138 0
5634 -82 -138 0
-5635 83 0
-5635 139 0
5635 -83 -139 0
-5636 84 0
-5636 140 0
5636 -84 -140 0
-5623 5637 0
-5637 5623 0
-5637 5638 0
-5624 5638 0
-5638 5637 5624 0
-5637 -5624 5639 0
-5639 5637 0
-5639 5624 0
-5638 5640 0
-5625 5640 0
-5640 5638 5625 0
-5639 5641 0
-5638 -5625 5641 0
-5641 5639 5638 0
-5641 5639 5625 0
-5639 -5625 5642 0
-5642 5639 0
-5642 5625 0
-5640 5643 0
-5626 5643 0
-5643 5640 5626 0
-5641 5644 0
-5640 -5626 5644 0
-5644 5641 5640 0
-5644 5641 5626 0
-5642 5645 0
-5641 -5626 5645 0
-5645 5642 5641 0
-5645 5642 5626 0
-5643 5646 0
-5627 5646 0
-5646 5643 5627 0
-5644 5647 0
-5643 -5627 5647 0
-5647 5644 5643 0
-5647 5644 5627 0
-5645 5648 0
-5644 -5627 5648 0
-5648 5645 5644 0
-5648 5645 5627 0
-5646 5649 0
-5628 5649 0
-5649 5646 5628 0
-5647 5650 0
-5646 -5628 5650 0
-5650 5647 5646 0
-5650 5647 5628 0
-5648 5651 0
-5647 -5628 5651 0
-5651 5648 5647 0
-5651 5648 5628 0
-5649 5652 0
-5629 5652 0
-5652 5649 5629 0
-5650 5653 0
-5649 -5629 5653 0
-5653 5650 5649 0
-5653 5650 5629 0
-5651 5654 0
-5650 -5629 5654 0
-5654 5651 5650 0
-5654 5651 5629 0
-5652 5655 0
-5630 5655 0
-5655 5652 5630 0
-5653 5656 0
-5652 -5630 5656 0
-5656 5653 5652 0
-5656 5653 5630 0
-5654 5657 0
-5653 -5630 5657 0
-5657 5654 5653 0
-5657 5654 5630 0
-5655 5658 0
-5631 5658 0
-5658 5655 5631 0
-5656 5659 0
-5655 -5631 5659 0
-5659 5656 5655 0
-5659 5656 5631 0
-5657 5660 0
-5656 -5631 5660 0
-5660 5657 5656 0
-5660 5657 5631 0
-5658 5661 0
-5632 5661 0
-5661 5658 5632 0
-5659 5662 0
-5658 -5632 5662 0
-5662 5659 5658 0
-5662 5659 5632 0
-5660 5663 0
-5659 -5632 5663 0
-5663 5660 5659 0
-5663 5660 5632 0
-5661 5664 0
-5633 5664 0
-5664 5661 5633 0
-5662 5665 0
-5661 -5633 5665 0
-5665 5662 5661 0
-5665 5662 5633 0
-5663 5666 0
-5662 -5633 5666 0
-5666 5663 5662 0
-5666 5663 5633 0
-5664 5667 0
-5634 5667 0
-5667 5664 5634 0
-5665 5668 0
-5664 -5634 5668 0
-5668 5665 5664 0
-5668 5665 5634 0
-5666 5669 0
-5665 -5634 5669 0
-5669 5666 5665 0
-5669 5666 5634 0
-5667 5670 0
-5635 5670 0
-5670 5667 5635 0
-5668 5671 0
-5667 -5635 5671 0
-5671 5668 5667 0
-5671 5668 5635 0
-5669 5672 0
-5668 -5635 5672 0
-5672 5669 5668 0
-5672 5669 5635 0
-5670 5673 0
-5636 5673 0
-5673 5670 5636 0
-5671 5674 0
-5670 -5636 5674 0
-5674 5671 5670 0
-5674 5671 5636 0
-5672 5675 0
-5671 -5636 5675 0
-5675 5672 5671 0
-5675 5672 5636 0
5675 0
-5676 71 0
-5676 141 0
5676 -71 -141 0
-5677 72 0
-5677 142 0
5677 -72 -142 0
-5678 73 0
-5678 143 0
5678 -73 -143 0
-5679 74 0
-5679 144 0
5679 -74 -144 0
-5680 75 0
-5680 145 0
5680 -75 -145 0
-5681 76 0
-5681 146 0
5681 -76 -146 0
-5682 77 0
-5682 147 0
5682 -77 -147 0
-5683 78 0
-5683 148 0
5683 -78 -148 0
-5684 79 0
-5684 149 0
5684 -79 -149 0
-5685 80 0
-5685 150 0
5685 -80 -150 0
-5686 81 0
-5686 151 0
5686 -81 -151 0
-5687 82 0
-5687 152 0
5687 -82 -152 0
-5688 83 0
-5688 153 0
5688 -83 -153 0
-5689 84 0
-5689 154 0
5689 -84 -154 0
-5676 5690 0
-5690 5676 0
-5690 5691 0
-5677 5691 0
-5691 5690 5677 0
-5690 -5677 5692 0
-5692 5690 0
-5692 5677 0
-5691 5693 0
-5678 5693 0
-5693 5691 5678 0
-5692 5694 0
-5691 -5678 5694 0
-5694 5692 5691 0
-5694 5692 5678 0
-5692 -5678 5695 0
-5695 5692 0
-5695 5678 0
-5693 5696 0
-5679 5696 0
-5696 5693 5679 0
-5694 5697 0
-5693 -5679 5697 0
-5697 5694 5693 0
-5697 5694 5679 0
-5695 5698 0
-5694 -5679 5698 0
-5698 5695 5694 0
-5698 5695 5679 0
-5696 5699 0
-5680 5699 0
-5699 5696 5680 0
-5697 5700 0
-5696 -5680 5700 0
-5700 5697 5696 0
-5700 5697 5680 0
-5698 5701 0
-5697 -5680 5701 0
-5701 5698 5697 0
-5701 5698 5680 0
-5699 5702 0
-5681 5702 0
-5702 5699 5681 0
-5700 5703 0
-5699 -5681 5703 0
-5703 5700 5699 0
-5703 5700 5681 0
-5701 5704 0
-5700 -5681 5704 0
-5704 5701 5700 0
-5704 5701 5681 0
-5702 5705 0
-5682 5705 0
-5705 5702 5682 0
-5703 5706 0
-5702 -5682 5706 0
-5706 5703 5702 0
-5706 5703 5682 0
-5704 5707 0
-5703 -5682 5707 0
-5707 5704 5703 0
-5707 5704 5682 0
-5705 5708 0
-5683 5708 0
-5708 5705 5683 0
-5706 5709 0
-5705 -5683 5709 0
-5709 5706 5705 0
-5709 5706 5683 0
-5707 5710 0
-5706 -5683 5710 0
-5710 5707 5706 0
-5710 5707 5683 0
-5708 5711 0
-5684 5711 0
-5711 5708 5684 0
-5709 5712 0
-5708 -5684 5712 0
-5712 5709 5708 0
-5712 5709 5684 0
-5710 5713 0
-5709 -5684 5713 0
-5713 5710 5709 0
-5713 5710 5684 0
-5711 5714 0
-5685 5714 0
-5714 5711 5685 0
-5712 5715 0
-5711 -5685 5715 0
-5715 5712 5711 0
-5715 5712 5685 0
-5713 5716 0
-5712 -5685 5716 0
-5716 5713 5712 0
-5716 5713 5685 0
-5714 5717 0
-5686 5717 0
-5717 5714 5686 0
-5715 5718 0
-5714 -5686 5718 0
-5718 5715 5714 0
-5718 5715 5686 0
-5716 5719 0
-5715 -5686 5719 0
-5719 5716 5715 0
-5719 5716 5686 0
-5717 5720 0
-5687 5720 0
-5720 5717 5687 0
-5718 5721 0
-5717 -5687 5721 0
-5721 5718 5717 0
-5721 5718 5687 0
-5719 5722 0
-5718 -5687 5722 0
-5722 5719 5718 0
-5722 5719 5687 0
-5720 5723 0
-5688 5723 0
-5723 5720 5688 0
-5721 5724 0
-5720 -5688 5724 0
-5724 5721 5720 0
-5724 5721 5688 0
-5722 5725 0
-5721 -5688 5725 0
-5725 5722 5721 0
-5725 5722 5688 0
-5723 5726 0
-5689 5726 0
-5726 5723 5689 0
-5724 5727 0
-5723 -5689 5727 0
-5727 5724 5723 0
-5727 5724 5689 0
-5725 5728 0
-5724 -5689 5728 0
-5728 5725 5724 0
-5728 5725 5689 0
5728 0
-5729 71 0
-5729 155 0
5729 -71 -155 0
-5730 72 0
-5730 156 0
5730 -72 -156 0
-5731 73 0
-5731 157 0
5731 -73 -157 0
-5732 74 0
-5732 158 0
5732 -74 -158 0
-5733 75 0
-5733 159 0
5733 -75 -159 0
-5734 76 0
-5734 160 0
5734 -76 -160 0
-5735 77 0
-5735 161 0
5735 -77 -161 0
-5736 78 0
-5736 162 0
5736 -78 -162 0
-5737 79 0
-5737 163 0
5737 -79 -163 0
-5738 80 0
-5738 164 0
5738 -80 -164 0
-5739 81 0
-5739 165 0
5739 -81 -165 0
-5740 82 0
-5740 166 0
5740 -82 -166 0
-5741 83 0
-5741 167 0
5741 -83 -167 0
-5742 84 0
-5742 168 0
5742 -84 -168 0
-5729 5743 0
-5743 5729 0
-5743 5744 0
-5730 5744 0
-5744 5743 5730 0
-5743 -5730 5745 0
-5745 5743 0
-5745 5730 0
-5744 5746 0
-5731 5746 0
-5746 5744 5731 0
-5745 5747 0
-5744 -5731 5747 0
-5747 5745 5744 0
-5747 5745 5731 0
-5745 -5731 5748 0
-5748 5745 0
-5748 5731 0
-5746 5749 0
-5732 5749 0
-5749 5746 5732 0
-5747 5750 0
-5746 -5732 5750 0
-5750 5747 5746 0
-5750 5747 5732 0
-5748 5751 0
-5747 -5732 5751 0
-5751 5748 5747 0
-5751 5748 5732 0
-5749 5752 0
-5733 5752 0
-5752 5749 5733 0
-5750 5753 0
-5749 -5733 5753 0
-5753 5750 5749 0
-5753 5750 5733 0
-5751 5754 0
-5750 -5733 5754 0
-5754 5751 5750 0
-5754 5751 5733 0
-5752 5755 0
-5734 5755 0
-5755 5752 5734 0
-5753 5756 0
-5752 -5734 5756 0
-5756 5753 5752 0
-5756 5753 5734 0
-5754 5757 0
-5753 -5734 5757 0
-5757 5754 5753 0
-5757 5754 5734 0
-5755 5758 0
-5735 5758 0
-5758 5755 5735 0
-5756 5759 0
-5755 -5735 5759 0
-5759 5756 5755 0
-5759 5756 5735 0
-5757 5760 0
-5756 -5735 5760 0
-5760 5757 5756 0
-5760 5757 5735 0
-5758 5761 0
-5736 5761 0
-5761 5758 5736 0
-5759 5762 0
-5758 -5736 5762 0
-5762 5759 5758 0
-5762 5759 5736 0
-5760 5763 0
-5759 -5736 5763 0
-5763 5760 5759 0
-5763 5760 5736 0
-5761 5764 0
-5737 5764 0
-5764 5761 5737 0
-5762 5765 0
-5761 -5737 5765 0
-5765 5762 5761 0
-5765 5762 5737 0
-5763 5766 0
-5762 -5737 5766 0
-5766 5763 5762 0
-5766 5763 5737 0
-5764 5767 0
-5738 5767 0
-5767 5764 5738 0
-5765 5768 0
-5764 -5738 5768 0
-5768 5765 5764 0
-5768 5765 5738 0
-5766 5769 0
-5765 -5738 5769 0
-5769 5766 5765 0
-5769 5766 5738 0
-5767 5770 0
-5739 5770 0
-5770 5767 5739 0
-5768 5771 0
-5767 -5739 5771 0
-5771 5768 5767 0
-5771 5768 5739 0
-5769 5772 0
-5768 -5739 5772 0
-5772 5769 5768 0
-5772 5769 5739 0
-5770 5773 0
-5740 5773 0
-5773 5770 5740 0
-5771 5774 0
-5770 -5740 5774 0
-5774 5771 5770 0
-5774 5771 5740 0
-5772 5775 0
-5771 -5740 5775 0
-5775 5772 5771 0
-5775 5772 5740 0
-5773 5776 0
-5741 5776 0
-5776 5773 5741 0
-5774 5777 0
-5773 -5741 5777 0
-5777 5774 5773 0
-5777 5774 5741 0
-5775 5778 0
-5774 -5741 5778 0
-5778 5775 5774 0
-5778 5775 5741 0
-5776 5779 0
-5742 5779 0
-5779 5776 5742 0
-5777 5780 0
-5776 -5742 5780 0
-5780 5777 5776 0
-5780 5777 5742 0
-5778 5781 0
-5777 -5742 5781 0
-5781 5778 5777 0
-5781 5778 5742 0
5781 0
-5782 71 0
-5782 169 0
5782 -71 -169 0
-5783 72 0
-5783 170 0
5783 -72 -170 0
-5784 73 0
-5784 171 0
5784 -73 -171 0
-5785 74 0
-5785 172 0
5785 -74 -172 0
-5786 75 0
-5786 173 0
5786 -75 -173 0
-5787 76 0
-5787 174 0
5787 -76 -174 0
-5788 77 0
-5788 175 0
5788 -77 -175 0
-5789 78 0
-5789 176 0
5789 -78 -176 0
-5790 79 0
-5790 177 0
5790 -79 -177 0
-5791 80 0
-5791 178 0
5791 -80 -178 0
-5792 81 0
-5792 179 0
5792 -81 -179 0
-5793 82 0
-5793 180 0
5793 -82 -180 0
-5794 83 0
-5794 181 0
5794 -83 -181 0
-5795 84 0
-5795 182 0
5795 -84 -182 0
-5782 5796 0
-5796 5782 0
-5796 5797 0
-5783 5797 0
-5797 5796 5783 0
-5796 -5783 5798 0
-5798 5796 0
-5798 5783 0
-5797 5799 0
-5784 5799 0
-5799 5797 5784 0
-5798 5800 0
-5797 -5784 5800 0
-5800 5798 5797 0
-5800 5798 5784 0
-5798 -5784 5801 0
-5801 5798 0
-5801 5784 0
-5799 5802 0
-5785 5802 0
-5802 5799 5785 0
-5800 5803 0
-5799 -5785 5803 0
-5803 5800 5799 0
-5803 5800 5785 0
-5801 5804 0
-5800 -5785 5804 0
-5804 5801 5800 0
-5804 5801 5785 0
-5802 5805 0
-5786 5805 0
-5805 5802 5786 0
-5803 5806 0
-5802 -5786 5806 0
-5806 5803 5802 0
-5806 5803 5786 0
-5804 5807 0
-5803 -5786 5807 0
-5807 5804 5803 0
-5807 5804 5786 0
-5805 5808 0
-5787 5808 0
-5808 5805 5787 0
-5806 5809 0
-5805 -5787 5809 0
-5809 5806 5805 0
-5809 5806 5787 0
-5807 5810 0
-5806 -5787 5810 0
-5810 5807 5806 0
-5810 5807 5787 0
-5808 5811 0
-5788 5811 0
-5811 5808 5788 0
-5809 5812 0
-5808 -5788 5812 0
-5812 5809 5808 0
-5812 5809 5788 0
-5810 5813 0
-5809 -5788 5813 0
-5813 5810 5809 0
-5813 5810 5788 0
-5811 5814 0
-5789 5814 0
-5814 5811 5789 0
-5812 5815 0
-5811 -5789 5815 0
-5815 5812 5811 0
-5815 5812 5789 0
-5813 5816 0
-5812 -5789 5816 0
-5816 5813 5812 0
-5816 5813 5789 0
-5814 5817 0
-5790 5817 0
-5817 5814 5790 0
-5815 5818 0
-5814 -5790 5818 0
-5818 5815 5814 0
-5818 5815 5790 0
-5816 5819 0
-5815 -5790 5819 0
-5819 5816 5815 0
-5819 5816 5790 0
-5817 5820 0
-5791 5820 0
-5820 5817 5791 0
-5818 5821 0
-5817 -5791 5821 0
-5821 5818 5817 0
-5821 5818 5791 0
-5819 5822 0
-5818 -5791 5822 0
-5822 5819 5818 0
-5822 5819 5791 0
-5820 5823 0
-5792 5823 0
-5823 5820 5792 0
-5821 5824 0
-5820 -5792 5824 0
-5824 5821 5820 0
-5824 5821 5792 0
-5822 5825 0
-5821 -5792 5825 0
-5825 5822 5821 0
-5825 5822 5792 0
-5823 5826 0
-5793 5826 0
-5826 5823 5793 0
-5824 5827 0
-5823 -5793 5827 0
-5827 5824 5823 0
-5827 5824 5793 0
-5825 5828 0
-5824 -5793 5828 0
-5828 5825 5824 0
-5828 5825 5793 0
-5826 5829 0
-5794 5829 0
-5829 5826 5794 0
-5827 5830 0
-5826 -5794 5830 0
-5830 5827 5826 0
-5830 5827 5794 0
-5828 5831 0
-5827 -5794 5831 0
-5831 5828 5827 0
-5831 5828 5794 0
-5829 5832 0
-5795 5832 0
-5832 5829 5795 0
-5830 5833 0
-5829 -5795 5833 0
-5833 5830 5829 0
-5833 5830 5795 0
-5831 5834 0
-5830 -5795 5834 0
-5834 5831 5830 0
-5834 5831 5795 0
5834 0
-5835 71 0
-5835 183 0
5835 -71 -183 0
-5836 72 0
-5836 184 0
5836 -72 -184 0
-5837 73 0
-5837 185 0
5837 -73 -185 0
-5838 74 0
-5838 186 0
5838 -74 -186 0
-5839 75 0
-5839 187 0
5839 -75 -187 0
-5840 76 0
-5840 188 0
5840 -76 -188 0
-5841 77 0
-5841 189 0
5841 -77 -189 0
-5842 78 0
-5842 190 0
5842 -78 -190 0
-5843 79 0
-5843 191 0
5843 -79 -191 0
-5844 80 0
-5844 192 0
5844 -80 -192 0
-5845 81 0
-5845 193 0
5845 -81 -193 0
-5846 82 0
-5846 194 0
5846 -82 -194 0
-5847 83 0
-5847 195 0
5847 -83 -195 0
-5848 84 0
-5848 196 0
5848 -84 -196 0
-5835 5849 0
-5849 5835 0
-5849 5850 0
-5836 5850 0
-5850 5849 5836 0
-5849 -5836 5851 0
-5851 5849 0
-5851 5836 0
-5850 5852 0
-5837 5852 0
-5852 5850 5837 0
-5851 5853 0
-5850 -5837 5853 0
-5853 5851 5850 0
-5853 5851 5837 0
-5851 -5837 5854 0
-5854 5851 0
-5854 5837 0
-5852 5855 0
-5838 5855 0
-5855 5852 5838 0
-5853 5856 0
-5852 -5838 5856 0
-5856 5853 5852 0
-5856 5853 5838 0
-5854 5857 0
-5853 -5838 5857 0
-5857 5854 5853 0
-5857 5854 5838 0
-5855 5858 0
-5839 5858 0
-5858 5855 5839 0
-5856 5859 0
-5855 -5839 5859 0
-5859 5856 5855 0
-5859 5856 5839 0
-5857 5860 0
-5856 -5839 5860 0
-5860 5857 5856 0
-5860 5857 5839 0
-5858 5861 0
-5840 5861 0
-5861 5858 5840 0
-5859 5862 0
-5858 -5840 5862 0
-5862 5859 5858 0
-5862 5859 5840 0
-5860 5863 0
-5859 -5840 5863 0
-5863 5860 5859 0
-5863 5860 5840 0
-5861 5864 0
-5841 5864 0
-5864 5861 5841 0
-5862 5865 0
-5861 -5841 5865 0
-5865 5862 5861 0
-5865 5862 5841 0
-5863 5866 0
-5862 -5841 5866 0
-5866 5863 5862 0
-5866 5863 5841 0
-5864 5867 0
-5842 5867 0
-5867 5864 5842 0
-5865 5868 0
-5864 -5842 5868 0
-5868 5865 5864 0
-5868 5865 5842 0
-5866 5869 0
-5865 -5842 5869 0
-5869 5866 5865 0
-5869 5866 5842 0
-5867 5870 0
-5843 5870 0
-5870 5867 5843 0
-5868 5871 0
-5867 -5843 5871 0
-5871 5868 5867 0
-5871 5868 5843 0
-5869 5872 0
-5868 -5843 5872 0
-5872 5869 5868 0
-5872 5869 5843 0
-5870 5873 0
-5844 5873 0
-5873 5870 5844 0
-5871 5874 0
-5870 -5844 5874 0
-5874 5871 5870 0
-5874 5871 5844 0
-5872 5875 0
-5871 -5844 5875 0
-5875 5872 5871 0
-5875 5872 5844 0
-5873 5876 0
-5845 5876 0
-5876 5873 5845 0
-5874 5877 0
-5873 -5845 5877 0
-5877 5874 5873 0
-5877 5874 5845 0
-5875 5878 0
-5874 -5845 5878 0
-5878 5875 5874 0
-5878 5875 5845 0
-5876 5879 0
-5846 5879 0
-5879 5876 5846 0
-5877 5880 0
-5876 -5846 5880 0
-5880 5877 5876 0
-5880 5877 5846 0
-5878 5881 0
-5877 -5846 5881 0
-5881 5878 5877 0
-5881 5878 5846 0
-5879 5882 0
-5847 5882 0
-5882 5879 5847 0
-5880 5883 0
-5879 -5847 5883 0
-5883 5880 5879 0
-5883 5880 5847 0
-5881 5884 0
-5880 -5847 5884 0
-5884 5881 5880 0
-5884 5881 5847 0
-5882 5885 0
-5848 5885 0
-5885 5882 5848 0
-5883 5886 0
-5882 -5848 5886 0
-5886 5883 5882 0
-5886 5883 5848 0
-5884 5887 0
-5883 -5848 5887 0
-5887 5884 5883 0
-5887 5884 5848 0
5887 0
-5888 85 0
-5888 99 0
5888 -85 -99 0
-5889 86 0
-5889 100 0
5889 -86 -100 0
-5890 87 0
-5890 101 0
5890 -87 -101 0
-5891 88 0
-5891 102 0
5891 -88 -102 0
-5892 89 0
-5892 103 0
5892 -89 -103 0
-5893 90 0
-5893 104 0
5893 -90 -104 0
-5894 91 0
-5894 105 0
5894 -91 -105 0
-5895 92 0
-5895 106 0
5895 -92 -106 0
-5896 93 0
-5896 107 0
5896 -93 -107 0
-5897 94 0
-5897 108 0
5897 -94 -108 0
-5898 95 0
-5898 109 0
5898 -95 -109 0
-5899 96 0
-5899 110 0
5899 -96 -110 0
-5900 97 0
-5900 111 0
5900 -97 -111 0
-5901 98 0
-5901 112 0
5901 -98 -112 0
-5888 5902 0
-5902 5888 0
-5902 5903 0
-5889 5903 0
-5903 5902 5889 0
-5902 -5889 5904 0
-5904 5902 0
-5904 5889 0
-5903 5905 0
-5890 5905 0
-5905 5903 5890 0
-5904 5906 0
-5903 -5890 5906 0
-5906 5904 5903 0
-5906 5904 5890 0
-5904 -5890 5907 0
-5907 5904 0
-5907 5890 0
-5905 5908 0
-5891 5908 0
-5908 5905 5891 0
-5906 5909 0
-5905 -5891 5909 0
-5909 5906 5905 0
-5909 5906 5891 0
-5907 5910 0
-5906 -5891 5910 0
-5910 5907 5906 0
-5910 5907 5891 0
-5908 5911 0
-5892 5911 0
-5911 5908 5892 0
-5909 5912 0
-5908 -5892 5912 0
-5912 5909 5908 0
-5912 5909 5892 0
-5910 5913 0
-5909 -5892 5913 0
-5913 5910 5909 0
-5913 5910 5892 0
-5911 5914 0
-5893 5914 0
-5914 5911 5893 0
-5912 5915 0
-5911 -5893 5915 0
-5915 5912 5911 0
-5915 5912 5893 0
-5913 5916 0
-5912 -5893 5916 0
-5916 5913 5912 0
-5916 5913 5893 0
-5914 5917 0
-5894 5917 0
-5917 5914 5894 0
-5915 5918 0
-5914 -5894 5918 0
-5918 5915 5914 0
-5918 5915 5894 0
-5916 5919 0
-5915 -5894 5919 0
-5919 5916 5915 0
-5919 5916 5894 0
-5917 5920 0
-5895 5920 0
-5920 5917 5895 0
-5918 5921 0
-5917 -5895 5921 0
-5921 5918 5917 0
-5921 5918 5895 0
-5919 5922 0
-5918 -5895 5922 0
-5922 5919 5918 0
-5922 5919 5895 0
-5920 5923 0
-5896 5923 0
-5923 5920 5896 0
-5921 5924 0
-5920 -5896 5924 0
-5924 5921 5920 0
-5924 5921 5896 0
-5922 5925 0
-5921 -5896 5925 0
-5925 5922 5921 0
-5925 5922 5896 0
-5923 5926 0
-5897 5926 0
-5926 5923 5897 0
-5924 5927 0
-5923 -5897 5927 0
-5927 5924 5923 0
-5927 5924 5897 0
-5925 5928 0
-5924 -5897 5928 0
-5928 5925 5924 0
-5928 5925 5897 0
-5926 5929 0
-5898 5929 0
-5929 5926 5898 0
-5927 5930 0
-5926 -5898 5930 0
-5930 5927 5926 0
-5930 5927 5898 0
-5928 5931 0
-5927 -5898 5931 0
-5931 5928 5927 0
-5931 5928 5898 0
-5929 5932 0
-5899 5932 0
-5932 5929 5899 0
-5930 5933 0
-5929 -5899 5933 0
-5933 5930 5929 0
-5933 5930 5899 0
-5931 5934 0
-5930 -5899 5934 0
-5934 5931 5930 0
-5934 5931 5899 0
-5932 5935 0
-5900 5935 0
-5935 5932 5900 0
-5933 5936 0
-5932 -5900 5936 0
-5936 5933 5932 0
-5936 5933 5900 0
-5934 5937 0
-5933 -5900 5937 0
-5937 5934 5933 0
-5937 5934 5900 0
-5935 5938 0
-5901 5938 0
-5938 5935 5901 0
-5936 5939 0
-5935 -5901 5939 0
-5939 5936 5935 0
-5939 5936 5901 0
-5937 5940 0
-5936 -5901 5940 0
-5940 5937 5936 0
-5940 5937 5901 0
5940 0
-5941 85 0
-5941 113 0
5941 -85 -113 0
-5942 86 0
-5942 114 0
5942 -86 -114 0
-5943 87 0
-5943 115 0
5943 -87 -115 0
-5944 88 0
-5944 116 0
5944 -88 -116 0
-5945 89 0
-5945 117 0
5945 -89 -117 0
-5946 90 0
-5946 118 0
5946 -90 -118 0
-5947 91 0
-5947 119 0
5947 -91 -119 0
-5948 92 0
-5948 120 0
5948 -92 -120 0
-5949 93 0
-5949 121 0
5949 -93 -121 0
-5950 94 0
-5950 122 0
5950 -94 -122 0
-5951 95 0
-5951 123 0
5951 -95 -123 0
-5952 96 0
-5952 124 0
5952 -96 -124 0
-5953 97 0
-5953 125 0
5953 -97 -125 0
-5954 98 0
-5954 126 0
5954 -98 -126 0
-5941 5955 0
-5955 5941 0
-5955 5956 0
-5942 5956 0
-5956 5955 5942 0
-5955 -5942 5957 0
-5957 5955 0
-5957 5942 0
-5956 5958 0
-5943 5958 0
-5958 5956 5943 0
-5957 5959 0
-5956 -5943 5959 0
-5959 5957 5956 0
-5959 5957 5943 0
-5957 -5943 5960 0
-5960 5957 0
-5960 5943 0
-5958 5961 0
-5944 5961 0
-5961 5958 5944 0
-5959 5962 0
-5958 -5944 5962 0
-5962 5959 5958 0
-5962 5959 5944 0
-5960 5963 0
-5959 -5944 5963 0
-5963 5960 5959 0
-5963 5960 5944 0
-5961 5964 0
-5945 5964 0
-5964 5961 5945 0
-5962 5965 0
-5961 -5945 5965 0
-5965 5962 5961 0
-5965 5962 5945 0
-5963 5966 0
-5962 -5945 5966 0
-5966 5963 5962 0
-5966 5963 5945 0
-5964 5967 0
-5946 5967 0
-5967 5964 5946 0
-5965 5968 0
-5964 -5946 5968 0
-5968 5965 5964 0
-5968 5965 5946 0
-5966 5969 0
-5965 -5946 5969 0
-5969 5966 5965 0
-5969 5966 5946 0
-5967 5970 0
-5947 5970 0
-5970 5967 5947 0
-5968 5971 0
-5967 -5947 5971 0
-5971 5968 5967 0
-5971 5968 5947 0
-5969 5972 0
-5968 -5947 5972 0
-5972 5969 5968 0
-5972 5969 5947 0
-5970 5973 0
-5948 5973 0
-5973 5970 5948 0
-5971 5974 0
-5970 -5948 5974 0
-5974 5971 5970 0
-5974 5971 5948 0
-5972 5975 0
-5971 -5948 5975 0
-5975 5972 5971 0
-5975 5972 5948 0
-5973 5976 0
-5949 5976 0
-5976 5973 5949 0
-5974 5977 0
-5973 -5949 5977 0
-5977 5974 5973 0
-5977 5974 5949 0
-5975 5978 0
-5974 -5949 5978 0
-5978 5975 5974 0
-5978 5975 5949 0
-5976 5979 0
-5950 5979 0
-5979 5976 5950 0
-5977 5980 0
-5976 -5950 5980 0
-5980 5977 5976 0
-5980 5977 5950 0
-5978 5981 0
-5977 -5950 5981 0
-5981 5978 5977 0
-5981 5978 5950 0
-5979 5982 0
-5951 5982 0
-5982 5979 5951 0
-5980 5983 0
-5979 -5951 5983 0
-5983 5980 5979 0
-5983 5980 5951 0
-5981 5984 0
-5980 -5951 5984 0
-5984 5981 5980 0
-5984 5981 5951 0
-5982 5985 0
-5952 5985 0
-5985 5982 5952 0
-5983 5986 0
-5982 -5952 5986 0
-5986 5983 5982 0
-5986 5983 5952 0
-5984 5987 0
-5983 -5952 5987 0
-5987 5984 5983 0
-5987 5984 5952 0
-5985 5988 0
-5953 5988 0
-5988 5985 5953 0
-5986 5989 0
-5985 -5953 5989 0
-5989 5986 5985 0
-5989 5986 5953 0
-5987 5990 0
-5986 -5953 5990 0
-5990 5987 5986 0
-5990 5987 5953 0
-5988 5991 0
-5954 5991 0
-5991 5988 5954 0
-5989 5992 0
-5988 -5954 5992 0
-5992 5989 5988 0
-5992 5989 5954 0
-5990 5993 0
-5989 -5954 5993 0
-5993 5990 5989 0
-5993 5990 5954 0
5993 0
-5994 85 0
-5994 127 0
5994 -85 -127 0
-5995 86 0
-5995 128 0
5995 -86 -128 0
-5996 87 0
-5996 129 0
5996 -87 -129 0
-5997 88 0
-5997 130 0
5997 -88 -130 0
-5998 89 0
-5998 131 0
5998 -89 -131 0
-5999 90 0
-5999 132 0
5999 -90 -132 0
-6000 91 0
-6000 133 0
6000 -91 -133 0
-6001 92 0
-6001 134 0
6001 -92 -134 0
-6002 93 0
-6002 135 0
6002 -93 -135 0
-6003 94 0
-6003 136 0
6003 -94 -136 0
-6004 95 0
-6004 137 0
6004 -95 -137 0
-6005 96 0
-6005 138 0
6005 -96 -138 0
-6006 97 0
-6006 139 0
6006 -97 -139 0
-6007 98 0
-6007 140 0
6007 -98 -140 0
-5994 6008 0
-6008 5994 0
-6008 6009 0
-5995 6009 0
-6009 6008 5995 0
-6008 -5995 6010 0
-6010 6008 0
-6010 5995 0
-6009 6011 0
-5996 6011 0
-6011 6009 5996 0
-6010 6012 0
-6009 -5996 6012 0
-6012 6010 6009 0
-6012 6010 5996 0
-6010 -5996 6013 0
-6013 6010 0
-6013 5996 0
-6011 6014 0
-5997 6014 0
-6014 6011 5997 0
-6012 6015 0
-6011 -5997 6015 0
-6015 6012 6011 0
-6015 6012 5997 0
-6013 6016 0
-6012 -5997 6016 0
-6016 6013 6012 0
-6016 6013 5997 0
-6014 6017 0
-5998 6017 0
-6017 6014 5998 0
-6015 6018 0
-6014 -5998 6018 0
-6018 6015 6014 0
-6018 6015 5998 0
-6016 6019 0
-6015 -5998 6019 0
-6019 6016 6015 0
-6019 6016 5998 0
-6017 6020 0
-5999 6020 0
-6020 6017 5999 0
-6018 6021 0
-6017 -5999 6021 0
-6021 6018 6017 0
-6021 6018 5999 0
-6019 6022 0
-6018 -5999 6022 0
-6022 6019 6018 0
-6022 6019 5999 0
-6020 6023 0
-6000 6023 0
-6023 6020 6000 0
-6021 6024 0
-6020 -6000 6024 0
-6024 6021 6020 0
-6024 6021 6000 0
-6022 6025 0
-6021 -6000 6025 0
-6025 6022 6021 0
-6025 6022 6000 0
-6023 6026 0
-6001 6026 0
-6026 6023 6001 0
-6024 6027 0
-6023 -6001 6027 0
-6027 6024 6023 0
-6027 6024 6001 0
-6025 6028 0
-6024 -6001 6028 0
-6028 6025 6024 0
-6028 6025 6001 0
-6026 6029 0
-6002 6029 0
-6029 6026 6002 0
-6027 6030 0
-6026 -6002 6030 0
-6030 6027 6026 0
-6030 6027 6002 0
-6028 6031 0
-6027 -6002 6031 0
-6031 6028 6027 0
-6031 6028 6002 0
-6029 6032 0
-6003 6032 0
-6032 6029 6003 0
-6030 6033 0
-6029 -6003 6033 0
-6033 6030 6029 0
-6033 6030 6003 0
-6031 6034 0
-6030 -6003 6034 0
-6034 6031 6030 0
-6034 6031 6003 0
-6032 6035 0
-6004 6035 0
-6035 6032 6004 0
-6033 6036 0
-6032 -6004 6036 0
-6036 6033 6032 0
-6036 6033 6004 0
-6034 6037 0
-6033 -6004 6037 0
-6037 6034 6033 0
-6037 6034 6004 0
-6035 6038 0
-6005 6038 0
-6038 6035 6005 0
-6036 6039 0
-6035 -6005 6039 0
-6039 6036 6035 0
-6039 6036 6005 0
-6037 6040 0
-6036 -6005 6040 0
-6040 6037 6036 0
-6040 6037 6005 0
-6038 6041 0
-6006 6041 0
-6041 6038 6006 0
-6039 6042 0
-6038 -6006 6042 0
-6042 6039 6038 0
-6042 6039 6006 0
-6040 6043 0
-6039 -6006 6043 0
-6043 6040 6039 0
-6043 6040 6006 0
-6041 6044 0
-6007 6044 0
-6044 6041 6007 0
-6042 6045 0
-6041 -6007 6045 0
-6045 6042 6041 0
-6045 6042 6007 0
-6043 6046 0
-6042 -6007 6046 0
-6046 6043 6042 0
-6046 6043 6007 0
6046 0
-6047 85 0
-6047 141 0
6047 -85 -141 0
-6048 86 0
-6048 142 0
6048 -86 -142 0
-6049 87 0
-6049 143 0
6049 -87 -143 0
-6050 88 0
-6050 144 0
6050 -88 -144 0
-6051 89 0
-6051 145 0
6051 -89 -145 0
-6052 90 0
-6052 146 0
6052 -90 -146 0
-6053 91 0
-6053 147 0
6053 -91 -147 0
-6054 92 0
-6054 148 0
6054 -92 -148 0
-6055 93 0
-6055 149 0
6055 -93 -149 0
-6056 94 0
-6056 150 0
6056 -94 -150 0
-6057 95 0
-6057 151 0
6057 -95 -151 0
-6058 96 0
-6058 152 0
6058 -96 -152 0
-6059 97 0
-6059 153 0
6059 -97 -153 0
-6060 98 0
-6060 154 0
6060 -98 -154 0
-6047 6061 0
-6061 6047 0
-6061 6062 0
-6048 6062 0
-6062 6061 6048 0
-6061 -6048 6063 0
-6063 6061 0
-6063 6048 0
-6062 6064 0
-6049 6064 0
-6064 6062 6049 0
-6063 6065 0
-6062 -6049 6065 0
-6065 6063 6062 0
-6065 6063 6049 0
-6063 -6049 6066 0
-6066 6063 0
-6066 6049 0
-6064 6067 0
-6050 6067 0
-6067 6064 6050 0
-6065 6068 0
-6064 -6050 6068 0
-6068 6065 6064 0
-6068 6065 6050 0
-6066 6069 0
-6065 -6050 6069 0
-6069 6066 6065 0
-6069 6066 6050 0
-6067 6070 0
-6051 6070 0
-6070 6067 6051 0
-6068 6071 0
-6067 -6051 6071 0
-6071 6068 6067 0
-6071 6068 6051 0
-6069 6072 0
-6068 -6051 6072 0
-6072 6069 6068 0
-6072 6069 6051 0
-6070 6073 0
-6052 6073 0
-6073 6070 6052 0
-6071 6074 0
-6070 -6052 6074 0
-6074 6071 6070 0
-6074 6071 6052 0
-6072 6075 0
-6071 -6052 6075 0
-6075 6072 6071 0
-6075 6072 6052 0
-6073 6076 0
-6053 6076 0
-6076 6073 6053 0
-6074 6077 0
-6073 -6053 6077 0
-6077 6074 6073 0
-6077 6074 6053 0
-6075 6078 0
-6074 -6053 6078 0
-6078 6075 6074 0
-6078 6075 6053 0
-6076 6079 0
-6054 6079 0
-6079 6076 6054 0
-6077 6080 0
-6076 -6054 6080 0
-6080 6077 6076 0
-6080 6077 6054 0
-6078 6081 0
-6077 -6054 6081 0
-6081 6078 6077 0
-6081 6078 6054 0
-6079 6082 0
-6055 6082 0
-6082 6079 6055 0
-6080 6083 0
-6079 -6055 6083 0
-6083 6080 6079 0
-6083 6080 6055 0
-6081 6084 0
-6080 -6055 6084 0
-6084 6081 6080 0
-6084 6081 6055 0
-6082 6085 0
-6056 6085 0
-6085 6082 6056 0
-6083 6086 0
-6082 -6056 6086 0
-6086 6083 6082 0
-6086 6083 6056 0
-6084 6087 0
-6083 -6056 6087 0
-6087 6084 6083 0
-6087 6084 6056 0
-6085 6088 0
-6057 6088 0
-6088 6085 6057 0
-6086 6089 0
-6085 -6057 6089 0
-6089 6086 6085 0
-6089 6086 6057 0
-6087 6090 0
-6086 -6057 6090 0
-6090 6087 6086 0
-6090 6087 6057 0
-6088 6091 0
-6058 6091 0
-6091 6088 6058 0
-6089 6092 0
-6088 -6058 6092 0
-6092 6089 6088 0
-6092 6089 6058 0
-6090 6093 0
-6089 -6058 6093 0
-6093 6090 6089 0
-6093 6090 6058 0
-6091 6094 0
-6059 6094 0
-6094 6091 6059 0
-6092 6095 0
-6091 -6059 6095 0
-6095 6092 6091 0
-6095 6092 6059 0
-6093 6096 0
-6092 -6059 6096 0
-6096 6093 6092 0
-6096 6093 6059 0
-6094 6097 0
-6060 6097 0
-6097 6094 6060 0
-6095 6098 0
-6094 -6060 6098 0
-6098 6095 6094 0
-6098 6095 6060 0
-6096 6099 0
-6095 -6060 6099 0
-6099 6096 6095 0
-6099 6096 6060 0
6099 0
-6100 85 0
-6100 155 0
6100 -85 -155 0
-6101 86 0
-6101 156 0
6101 -86 -156 0
-6102 87 0
-6102 157 0
6102 -87 -157 0
-6103 88 0
-6103 158 0
6103 -88 -158 0
-6104 89 0
-6104 159 0
6104 -89 -159 0
-6105 90 0
-6105 160 0
6105 -90 -160 0
-6106 91 0
-6106 161 0
6106 -91 -161 0
-6107 92 0
-6107 162 0
6107 -92 -162 0
-6108 93 0
-6108 163 0
6108 -93 -163 0
-6109 94 0
-6109 164 0
6109 -94 -164 0
-6110 95 0
-6110 165 0
6110 -95 -165 0
-6111 96 0
-6111 166 0
6111 -96 -166 0
-6112 97 0
-6112 167 0
6112 -97 -167 0
-6113 98 0
-6113 168 0
6113 -98 -168 0
-6100 6114 0
-6114 6100 0
-6114 6115 0
-6101 6115 0
-6115 6114 6101 0
-6114 -6101 6116 0
-6116 6114 0
-6116 6101 0
-6115 6117 0
-6102 6117 0
-6117 6115 6102 0
-6116 6118 0
-6115 -6102 6118 0
-6118 6116 6115 0
-6118 6116 6102 0
-6116 -6102 6119 0
-6119 6116 0
-6119 6102 0
-6117 6120 0
-6103 6120 0
-6120 6117 6103 0
-6118 6121 0
-6117 -6103 6121 0
-6121 6118 6117 0
-6121 6118 6103 0
-6119 6122 0
-6118 -6103 6122 0
-6122 6119 6118 0
-6122 6119 6103 0
-6120 6123 0
-6104 6123 0
-6123 6120 6104 0
-6121 6124 0
-6120 -6104 6124 0
-6124 6121 6120 0
-6124 6121 6104 0
-6122 6125 0
-6121 -6104 6125 0
-6125 6122 6121 0
-6125 6122 6104 0
-6123 6126 0
-6105 6126 0
-6126 6123 6105 0
-6124 6127 0
-6123 -6105 6127 0
-6127 6124 6123 0
-6127 6124 6105 0
-6125 6128 0
-6124 -6105 6128 0
-6128 6125 6124 0
-6128 6125 6105 0
-6126 6129 0
-6106 6129 0
-6129 6126 6106 0
-6127 6130 0
-6126 -6106 6130 0
-6130 6127 6126 0
-6130 6127 6106 0
-6128 6131 0
-6127 -6106 6131 0
-6131 6128 6127 0
-6131 6128 6106 0
-6129 6132 0
-6107 6132 0
-6132 6129 6107 0
-6130 6133 0
-6129 -6107 6133 0
-6133 6130 6129 0
-6133 6130 6107 0
-6131 6134 0
-6130 -6107 6134 0
-6134 6131 6130 0
-6134 6131 6107 0
-6132 6135 0
-6108 6135 0
-6135 6132 6108 0
-6133 6136 0
-6132 -6108 6136 0
-6136 6133 6132 0
-6136 6133 6108 0
-6134 6137 0
-6133 -6108 6137 0
-6137 6134 6133 0
-6137 6134 6108 0
-6135 6138 0
-6109 6138 0
-6138 6135 6109 0
-6136 6139 0
-6135 -6109 6139 0
-6139 6136 6135 0
-6139 6136 6109 0
-6137 6140 0
-6136 -6109 6140 0
-6140 6137 6136 0
-6140 6137 6109 0
-6138 6141 0
-6110 6141 0
-6141 6138 6110 0
-6139 6142 0
-6138 -6110 6142 0
-6142 6139 6138 0
-6142 6139 6110 0
-6140 6143 0
-6139 -6110 6143 0
-6143 6140 6139 0
-6143 6140 6110 0
-6141 6144 0
-6111 6144 0
-6144 6141 6111 0
-6142 6145 0
-6141 -6111 6145 0
-6145 6142 6141 0
-6145 6142 6111 0
-6143 6146 0
-6142 -6111 6146 0
-6146 6143 6142 0
-6146 6143 6111 0
-6144 6147 0
-6112 6147 0
-6147 6144 6112 0
-6145 6148 0
-6144 -6112 6148 0
-6148 6145 6144 0
-6148 6145 6112 0
-6146 6149 0
-6145 -6112 6149 0
-6149 6146 6145 0
-6149 6146 6112 0
-6147 6150 0
-6113 6150 0
-6150 6147 6113 0
-6148 6151 0
-6147 -6113 6151 0
-6151 6148 6147 0
-6151 6148 6113 0
-6149 6152 0
-6148 -6113 6152 0
-6152 6149 6148 0
-6152 6149 6113 0
6152 0
-6153 85 0
-6153 169 0
6153 -85 -169 0
-6154 86 0
-6154 170 0
6154 -86 -170 0
-6155 87 0
-6155 171 0
6155 -87 -171 0
-6156 88 0
-6156 172 0
6156 -88 -172 0
-6157 89 0
-6157 173 0
6157 -89 -173 0
-6158 90 0
-6158 174 0
6158 -90 -174 0
-6159 91 0
-6159 175 0
6159 -91 -175 0
-6160 92 0
-6160 176 0
6160 -92 -176 0
-6161 93 0
-6161 177 0
6161 -93 -177 0
-6162 94 0
-6162 178 0
6162 -94 -178 0
-6163 95 0
-6163 179 0
6163 -95 -179 0
-6164 96 0
-6164 180 0
6164 -96 -180 0
-6165 97 0
-6165 181 0
6165 -97 -181 0
-6166 98 0
-6166 182 0
6166 -98 -182 0
-6153 6167 0
-6167 6153 0
-6167 6168 0
-6154 6168 0
-6168 6167 6154 0
-6167 -6154 6169 0
-6169 6167 0
-6169 6154 0
-6168 6170 0
-6155 6170 0
-6170 6168 6155 0
-6169 6171 0
-6168 -6155 6171 0
-6171 6169 6168 0
-6171 6169 6155 0
-6169 -6155 6172 0
-6172 6169 0
-6172 6155 0
-6170 6173 0
-6156 6173 0
-6173 6170 6156 0
-6171 6174 0
-6170 -6156 6174 0
-6174 6171 6170 0
-6174 6171 6156 0
-6172 6175 0
-6171 -6156 6175 0
-6175 6172 6171 0
-6175 6172 6156 0
-6173 6176 0
-6157 6176 0
-6176 6173 6157 0
-6174 6177 0
-6173 -6157 6177 0
-6177 6174 6173 0
-6177 6174 6157 0
-6175 6178 0
-6174 -6157 6178 0
-6178 6175 6174 0
-6178 6175 6157 0
-6176 6179 0
-6158 6179 0
-6179 6176 6158 0
-6177 6180 0
-6176 -6158 6180 0
-6180 6177 6176 0
-6180 6177 6158 0
-6178 6181 0
-6177 -6158 6181 0
-6181 6178 6177 0
-6181 6178 6158 0
-6179 6182 0
-6159 6182 0
-6182 6179 6159 0
-6180 6183 0
-6179 -6159 6183 0
-6183 6180 6179 0
-6183 6180 6159 0
-6181 6184 0
-6180 -6159 6184 0
-6184 6181 6180 0
-6184 6181 6159 0
-6182 6185 0
-6160 6185 0
-6185 6182 6160 0
-6183 6186 0
-6182 -6160 6186 0
-6186 6183 6182 0
-6186 6183 6160 0
-6184 6187 0
-6183 -6160 6187 0
-6187 6184 6183 0
-6187 6184 6160 0
-6185 6188 0
-6161 6188 0
-6188 6185 6161 0
-6186 6189 0
-6185 -6161 6189 0
-6189 6186 6185 0
-6189 6186 6161 0
-6187 6190 0
-6186 -6161 6190 0
-6190 6187 6186 0
-6190 6187 6161 0
-6188 6191 0
-6162 6191 0
-6191 6188 6162 0
-6189 6192 0
-6188 -6162 6192 0
-6192 6189 6188 0
-6192 6189 6162 0
-6190 6193 0
-6189 -6162 6193 0
-6193 6190 6189 0
-6193 6190 6162 0
-6191 6194 0
-6163 6194 0
-6194 6191 6163 0
-6192 6195 0
-6191 -6163 6195 0
-6195 6192 6191 0
-6195 6192 6163 0
-6193 6196 0
-6192 -6163 6196 0
-6196 6193 6192 0
-6196 6193 6163 0
-6194 6197 0
-6164 6197 0
-6197 6194 6164 0
-6195 6198 0
-6194 -6164 6198 0
-6198 6195 6194 0
-6198 6195 6164 0
-6196 6199 0
-6195 -6164 6199 0
-6199 6196 6195 0
-6199 6196 6164 0
-6197 6200 0
-6165 6200 0
-6200 6197 6165 0
-6198 6201 0
-6197 -6165 6201 0
-6201 6198 6197 0
-6201 6198 6165 0
-6199 6202 0
-6198 -6165 6202 0
-6202 6199 6198 0
-6202 6199 6165 0
-6200 6203 0
-6166 6203 0
-6203 6200 6166 0
-6201 6204 0
-6200 -6166 6204 0
-6204 6201 6200 0
-6204 6201 6166 0
-6202 6205 0
-6201 -6166 6205 0
-6205 6202 6201 0
-6205 6202 6166 0
6205 0
-6206 85 0
-6206 183 0
6206 -85 -183 0
-6207 86 0
-6207 184 0
6207 -86 -184 0
-6208 87 0
-6208 185 0
6208 -87 -185 0
-6209 88 0
-6209 186 0
6209 -88 -186 0
-6210 89 0
-6210 187 0
6210 -89 -187 0
-6211 90 0
-6211 188 0
6211 -90 -188 0
-6212 91 0
-6212 189 0
6212 -91 -189 0
-6213 92 0
-6213 190 0
6213 -92 -190 0
-6214 93 0
-6214 191 0
6214 -93 -191 0
-6215 94 0
-6215 192 0
6215 -94 -192 0
-6216 95 0
-6216 193 0
6216 -95 -193 0
-6217 96 0
-6217 194 0
6217 -96 -194 0
-6218 97 0
-6218 195 0
6218 -97 -195 0
-6219 98 0
-6219 196 0
6219 -98 -196 0
-6206 6220 0
-6220 6206 0
-6220 6221 0
-6207 6221 0
-6221 6220 6207 0
-6220 -6207 6222 0
-6222 6220 0
-6222 6207 0
-6221 6223 0
-6208 6223 0
-6223 6221 6208 0
-6222 6224 0
-6221 -6208 6224 0
-6224 6222 6221 0
-6224 6222 6208 0
-6222 -6208 6225 0
-6225 6222 0
-6225 6208 0
-6223 6226 0
-6209 6226 0
-6226 6223 6209 0
-6224 6227 0
-6223 -6209 6227 0
-6227 6224 6223 0
-6227 6224 6209 0
-6225 6228 0
-6224 -6209 6228 0
-6228 6225 6224 0
-6228 6225 6209 0
-6226 6229 0
-6210 6229 0
-6229 6226 6210 0
-6227 6230 0
-6226 -6210 6230 0
-6230 6227 6226 0
-6230 6227 6210 0
-6228 6231 0
-6227 -6210 6231 0
-6231 6228 6227 0
-6231 6228 6210 0
-6229 6232 0
-6211 6232 0
-6232 6229 6211 0
-6230 6233 0
-6229 -6211 6233 0
-6233 6230 6229 0
-6233 6230 6211 0
-6231 6234 0
-6230 -6211 6234 0
-6234 6231 6230 0
-6234 6231 6211 0
-6232 6235 0
-6212 6235 0
-6235 6232 6212 0
-6233 6236 0
-6232 -6212 6236 0
-6236 6233 6232 0
-6236 6233 6212 0
-6234 6237 0
-6233 -6212 6237 0
-6237 6234 6233 0
-6237 6234 6212 0
-6235 6238 0
-6213 6238 0
-6238 6235 6213 0
-6236 6239 0
-6235 -6213 6239 0
-6239 6236 6235 0
-6239 6236 6213 0
-6237 6240 0
-6236 -6213 6240 0
-6240 6237 6236 0
-6240 6237 6213 0
-6238 6241 0
-6214 6241 0
-6241 6238 6214 0
-6239 6242 0
-6238 -6214 6242 0
-6242 6239 6238 0
-6242 6239 6214 0
-6240 6243 0
-6239 -6214 6243 0
-6243 6240 6239 0
-6243 6240 6214 0
-6241 6244 0
-6215 6244 0
-6244 6241 6215 0
-6242 6245 0
-6241 -6215 6245 0
-6245 6242 6241 0
-6245 6242 6215 0
-6243 6246 0
-6242 -6215 6246 0
-6246 6243 6242 0
-6246 6243 6215 0
-6244 6247 0
-6216 6247 0
-6247 6244 6216 0
-6245 6248 0
-6244 -6216 6248 0
-6248 6245 6244 0
-6248 6245 6216 0
-6246 6249 0
-6245 -6216 6249 0
-6249 6246 6245 0
-6249 6246 6216 0
-6247 6250 0
-6217 6250 0
-6250 6247 6217 0
-6248 6251 0
-6247 -6217 6251 0
-6251 6248 6247 0
-6251 6248 6217 0
-6249 6252 0
-6248 -6217 6252 0
-6252 6249 6248 0
-6252 6249 6217 0
-6250 6253 0
-6218 6253 0
-6253 6250 6218 0
-6251 6254 0
-6250 -6218 6254 0
-6254 6251 6250 0
-6254 6251 6218 0
-6252 6255 0
-6251 -6218 6255 0
-6255 6252 6251 0
-6255 6252 6218 0
-6253 6256 0
-6219 6256 0
-6256 6253 6219 0
-6254 6257 0
-6253 -6219 6257 0
-6257 6254 6253 0
-6257 6254 6219 0
-6255 6258 0
-6254 -6219 6258 0
-6258 6255 6254 0
-6258 6255 6219 0
6258 0
-6259 99 0
-6259 113 0
6259 -99 -113 0
-6260 100 0
-6260 114 0
6260 -100 -114 0
-6261 101 0
-6261 115 0
6261 -101 -115 0
-6262 102 0
-6262 116 0
6262 -102 -116 0
-6263 103 0
-6263 117 0
6263 -103 -117 0
-6264 104 0
-6264 118 0
6264 -104 -118 0
-6265 105 0
-6265 119 0
6265 -105 -119 0
-6266 106 0
-6266 120 0
6266 -106 -120 0
-6267 107 0
-6267 121 0
6267 -107 -121 0
-6268 108 0
-6268 122 0
6268 -108 -122 0
-6269 109 0
-6269 123 0
6269 -109 -123 0
-6270 110 0
-6270 124 0
6270 -110 -124 0
-6271 111 0
-6271 125 0
6271 -111 -125 0
-6272 112 0
-6272 126 0
6272 -112 -126 0
-6259 6273 0
-6273 6259 0
-6273 6274 0
-6260 6274 0
-6274 6273 6260 0
-6273 -6260 6275 0
-6275 6273 0
-6275 6260 0
-6274 6276 0
-6261 6276 0
-6276 6274 6261 0
-6275 6277 0
-6274 -6261 6277 0
-6277 6275 6274 0
-6277 6275 6261 0
-6275 -6261 6278 0
-6278 6275 0
-6278 6261 0
-6276 6279 0
-6262 6279 0
-6279 6276 6262 0
-6277 6280 0
-6276 -6262 6280 0
-6280 6277 6276 0
-6280 6277 6262 0
-6278 6281 0
-6277 -6262 6281 0
-6281 6278 6277 0
-6281 6278 6262 0
-6279 6282 0
-6263 6282 0
-6282 6279 6263 0
-6280 6283 0
-6279 -6263 6283 0
-6283 6280 6279 0
-6283 6280 6263 0
-6281 6284 0
-6280 -6263 6284 0
-6284 6281 6280 0
-6284 6281 6263 0
-6282 6285 0
-6264 6285 0
-6285 6282 6264 0
-6283 6286 0
-6282 -6264 6286 0
-6286 6283 6282 0
-6286 6283 6264 0
-6284 6287 0
-6283 -6264 6287 0
-6287 6284 6283 0
-6287 6284 6264 0
-6285 6288 0
-6265 6288 0
-6288 6285 6265 0
-6286 6289 0
-6285 -6265 6289 0
-6289 6286 6285 0
-6289 6286 6265 0
-6287 6290 0
-6286 -6265 6290 0
-6290 6287 6286 0
-6290 6287 6265 0
-6288 6291 0
-6266 6291 0
-6291 6288 6266 0
-6289 6292 0
-6288 -6266 6292 0
-6292 6289 6288 0
-6292 6289 6266 0
-6290 6293 0
-6289 -6266 6293 0
-6293 6290 6289 0
-6293 6290 6266 0
-6291 6294 0
-6267 6294 0
-6294 6291 6267 0
-6292 6295 0
-6291 -6267 6295 0
-6295 6292 6291 0
-6295 6292 6267 0
-6293 6296 0
-6292 -6267 6296 0
-6296 6293 6292 0
-6296 6293 6267 0
-6294 6297 0
-6268 6297 0
-6297 6294 6268 0
-6295 6298 0
-6294 -6268 6298 0
-6298 6295 6294 0
-6298 6295 6268 0
-6296 6299 0
-6295 -6268 6299 0
-6299 6296 6295 0
-6299 6296 6268 0
-6297 6300 0
-6269 6300 0
-6300 6297 6269 0
-6298 6301 0
-6297 -6269 6301 0
-6301 6298 6297 0
-6301 6298 6269 0
-6299 6302 0
-6298 -6269 6302 0
-6302 6299 6298 0
-6302 6299 6269 0
-6300 6303 0
-6270 6303 0
-6303 6300 6270 0
-6301 6304 0
-6300 -6270 6304 0
-6304 6301 6300 0
-6304 6301 6270 0
-6302 6305 0
-6301 -6270 6305 0
-6305 6302 6301 0
-6305 6302 6270 0
-6303 6306 0
-6271 6306 0
-6306 6303 6271 0
-6304 6307 0
-6303 -6271 6307 0
-6307 6304 6303 0
-6307 6304 6271 0
-6305 6308 0
-6304 -6271 6308 0
-6308 6305 6304 0
-6308 6305 6271 0
-6306 6309 0
-6272 6309 0
-6309 6306 6272 0
-6307 6310 0
-6306 -6272 6310 0
-6310 6307 6306 0
-6310 6307 6272 0
-6308 6311 0
-6307 -6272 6311 0
-6311 6308 6307 0
-6311 6308 6272 0
6311 0
-6312 99 0
-6312 127 0
6312 -99 -127 0
-6313 100 0
-6313 128 0
6313 -100 -128 0
-6314 101 0
-6314 129 0
6314 -101 -129 0
-6315 102 0
-6315 130 0
6315 -102 -130 0
-6316 103 0
-6316 131 0
6316 -103 -131 0
-6317 104 0
-6317 132 0
6317 -104 -132 0
-6318 105 0
-6318 133 0
6318 -105 -133 0
-6319 106 0
-6319 134 0
6319 -106 -134 0
-6320 107 0
-6320 135 0
6320 -107 -135 0
-6321 108 0
-6321 136 0
6321 -108 -136 0
-6322 109 0
-6322 137 0
6322 -109 -137 0
-6323 110 0
-6323 138 0
6323 -110 -138 0
-6324 111 0
-6324 139 0
6324 -111 -139 0
-6325 112 0
-6325 140 0
6325 -112 -140 0
-6312 6326 0
-6326 6312 0
-6326 6327 0
-6313 6327 0
-6327 6326 6313 0
-6326 -6313 6328 0
-6328 6326 0
-6328 6313 0
-6327 6329 0
-6314 6329 0
-6329 6327 6314 0
-6328 6330 0
-6327 -6314 6330 0
-6330 6328 6327 0
-6330 6328 6314 0
-6328 -6314 6331 0
-6331 6328 0
-6331 6314 0
-6329 6332 0
-6315 6332 0
-6332 6329 6315 0
-6330 6333 0
-6329 -6315 6333 0
-6333 6330 6329 0
-6333 6330 6315 0
-6331 6334 0
-6330 -6315 6334 0
-6334 6331 6330 0
-6334 6331 6315 0
-6332 6335 0
-6316 6335 0
-6335 6332 6316 0
-6333 6336 0
-6332 -6316 6336 0
-6336 6333 6332 0
-6336 6333 6316 0
-6334 6337 0
-6333 -6316 6337 0
-6337 6334 6333 0
-6337 6334 6316 0
-6335 6338 0
-6317 6338 0
-6338 6335 6317 0
-6336 6339 0
-6335 -6317 6339 0
-6339 6336 6335 0
-6339 6336 6317 0
-6337 6340 0
-6336 -6317 6340 0
-6340 6337 6336 0
-6340 6337 6317 0
-6338 6341 0
-6318 6341 0
-6341 6338 6318 0
-6339 6342 0
-6338 -6318 6342 0
-6342 6339 6338 0
-6342 6339 6318 0
-6340 6343 0
-6339 -6318 6343 0
-6343 6340 6339 0
-6343 6340 6318 0
-6341 6344 0
-6319 6344 0
-6344 6341 6319 0
-6342 6345 0
-6341 -6319 6345 0
-6345 6342 6341 0
-6345 6342 6319 0
-6343 6346 0
-6342 -6319 6346 0
-6346 6343 6342 0
-6346 6343 6319 0
-6344 6347 0
-6320 6347 0
-6347 6344 6320 0
-6345 6348 0
-6344 -6320 6348 0
-6348 6345 6344 0
-6348 6345 6320 0
-6346 6349 0
-6345 -6320 6349 0
-6349 6346 6345 0
-6349 6346 6320 0
-6347 6350 0
-6321 6350 0
-6350 6347 6321 0
-6348 6351 0
-6347 -6321 6351 0
-6351 6348 6347 0
-6351 6348 6321 0
-6349 6352 0
-6348 -6321 6352 0
-6352 6349 6348 0
-6352 6349 6321 0
-6350 6353 0
-6322 6353 0
-6353 6350 6322 0
-6351 6354 0
-6350 -6322 6354 0
-6354 6351 6350 0
-6354 6351 6322 0
-6352 6355 0
-6351 -6322 6355 0
-6355 6352 6351 0
-6355 6352 6322 0
-6353 6356 0
-6323 6356 0
-6356 6353 6323 0
-6354 6357 0
-6353 -6323 6357 0
-6357 6354 6353 0
-6357 6354 6323 0
-6355 6358 0
-6354 -6323 6358 0
-6358 6355 6354 0
-6358 6355 6323 0
-6356 6359 0
-6324 6359 0
-6359 6356 6324 0
-6357 6360 0
-6356 -6324 6360 0
-6360 6357 6356 0
-6360 6357 6324 0
-6358 6361 0
-6357 -6324 6361 0
-6361 6358 6357 0
-6361 6358 6324 0
-6359 6362 0
-6325 6362 0
-6362 6359 6325 0
-6360 6363 0
-6359 -6325 6363 0
-6363 6360 6359 0
-6363 6360 6325 0
-6361 6364 0
-6360 -6325 6364 0
-6364 6361 6360 0
-6364 6361 6325 0
6364 0
-6365 99 0
-6365 141 0
6365 -99 -141 0
-6366 100 0
-6366 142 0
6366 -100 -142 0
-6367 101 0
-6367 143 0
6367 -101 -143 0
-6368 102 0
-6368 144 0
6368 -102 -144 0
-6369 103 0
-6369 145 0
6369 -103 -145 0
-6370 104 0
-6370 146 0
6370 -104 -146 0
-6371 105 0
-6371 147 0
6371 -105 -147 0
-6372 106 0
-6372 148 0
6372 -106 -148 0
-6373 107 0
-6373 149 0
6373 -107 -149 0
-6374 108 0
-6374 150 0
6374 -108 -150 0
-6375 109 0
-6375 151 0
6375 -109 -151 0
-6376 110 0
-6376 152 0
6376 -110 -152 0
-6377 111 0
-6377 153 0
6377 -111 -153 0
-6378 112 0
-6378 154 0
6378 -112 -154 0
-6365 6379 0
-6379 6365 0
-6379 6380 0
-6366 6380 0
-6380 6379 6366 0
-6379 -6366 6381 0
-6381 6379 0
-6381 6366 0
-6380 6382 0
-6367 6382 0
-6382 6380 6367 0
-6381 6383 0
-6380 -6367 6383 0
-6383 6381 6380 0
-6383 6381 6367 0
-6381 -6367 6384 0
-6384 6381 0
-6384 6367 0
-6382 6385 0
-6368 6385 0
-6385 6382 6368 0
-6383 6386 0
-6382 -6368 6386 0
-6386 6383 6382 0
-6386 6383 6368 0
-6384 6387 0
-6383 -6368 6387 0
-6387 6384 6383 0
-6387 6384 6368 0
-6385 6388 0
-6369 6388 0
-6388 6385 6369 0
-6386 6389 0
-6385 -6369 6389 0
-6389 6386 6385 0
-6389 6386 6369 0
-6387 6390 0
-6386 -6369 6390 0
-6390 6387 6386 0
-6390 6387 6369 0
-6388 6391 0
-6370 6391 0
-6391 6388 6370 0
-6389 6392 0
-6388 -6370 6392 0
-6392 6389 6388 0
-6392 6389 6370 0
-6390 6393 0
-6389 -6370 6393 0
-6393 6390 6389 0
-6393 6390 6370 0
-6391 6394 0
-6371 6394 0
-6394 6391 6371 0
-6392 6395 0
-6391 -6371 6395 0
-6395 6392 6391 0
-6395 6392 6371 0
-6393 6396 0
-6392 -6371 6396 0
-6396 6393 6392 0
-6396 6393 6371 0
-6394 6397 0
-6372 6397 0
-6397 6394 6372 0
-6395 6398 0
-6394 -6372 6398 0
-6398 6395 6394 0
-6398 6395 6372 0
-6396 6399 0
-6395 -6372 6399 0
-6399 6396 6395 0
-6399 6396 6372 0
-6397 6400 0
-6373 6400 0
-6400 6397 6373 0
-6398 6401 0
-6397 -6373 6401 0
-6401 6398 6397 0
-6401 6398 6373 0
-6399 6402 0
-6398 -6373 6402 0
-6402 6399 6398 0
-6402 6399 6373 0
-6400 6403 0
-6374 6403 0
-6403 6400 6374 0
-6401 6404 0
-6400 -6374 6404 0
-6404 6401 6400 0
-6404 6401 6374 0
-6402 6405 0
-6401 -6374 6405 0
-6405 6402 6401 0
-6405 6402 6374 0
-6403 6406 0
-6375 6406 0
-6406 6403 6375 0
-6404 6407 0
-6403 -6375 6407 0
-6407 6404 6403 0
-6407 6404 6375 0
-6405 6408 0
-6404 -6375 6408 0
-6408 6405 6404 0
-6408 6405 6375 0
-6406 6409 0
-6376 6409 0
-6409 6406 6376 0
-6407 6410 0
-6406 -6376 6410 0
-6410 6407 6406 0
-6410 6407 6376 0
-6408 6411 0
-6407 -6376 6411 0
-6411 6408 6407 0
-6411 6408 6376 0
-6409 6412 0
-6377 6412 0
-6412 6409 6377 0
-6410 6413 0
-6409 -6377 6413 0
-6413 6410 6409 0
-6413 6410 6377 0
-6411 6414 0
-6410 -6377 6414 0
-6414 6411 6410 0
-6414 6411 6377 0
-6412 6415 0
-6378 6415 0
-6415 6412 6378 0
-6413 6416 0
-6412 -6378 6416 0
-6416 6413 6412 0
-6416 6413 6378 0
-6414 6417 0
-6413 -6378 6417 0
-6417 6414 6413 0
-6417 6414 6378 0
6417 0
-6418 99 0
-6418 155 0
6418 -99 -155 0
-6419 100 0
-6419 156 0
6419 -100 -156 0
-6420 101 0
-6420 157 0
6420 -101 -157 0
-6421 102 0
-6421 158 0
6421 -102 -158 0
-6422 103 0
-6422 159 0
6422 -103 -159 0
-6423 104 0
-6423 160 0
6423 -104 -160 0
-6424 105 0
-6424 161 0
6424 -105 -161 0
-6425 106 0
-6425 162 0
6425 -106 -162 0
-6426 107 0
-6426 163 0
6426 -107 -163 0
-6427 108 0
-6427 164 0
6427 -108 -164 0
-6428 109 0
-6428 165 0
6428 -109 -165 0
-6429 110 0
-6429 166 0
6429 -110 -166 0
-6430 111 0
-6430 167 0
6430 -111 -167 0
-6431 112 0
-6431 168 0
6431 -112 -168 0
-6418 6432 0
-6432 6418 0
-6432 6433 0
-6419 6433 0
-6433 6432 6419 0
-6432 -6419 6434 0
-6434 6432 0
-6434 6419 0
-6433 6435 0
-6420 6435 0
-6435 6433 6420 0
-6434 6436 0
-6433 -6420 6436 0
-6436 6434 6433 0
-6436 6434 6420 0
-6434 -6420 6437 0
-6437 6434 0
-6437 6420 0
-6435 6438 0
-6421 6438 0
-6438 6435 6421 0
-6436 6439 0
-6435 -6421 6439 0
-6439 6436 6435 0
-6439 6436 6421 0
-6437 6440 0
-6436 -6421 6440 0
-6440 6437 6436 0
-6440 6437 6421 0
-6438 6441 0
-6422 6441 0
-6441 6438 6422 0
-6439 6442 0
-6438 -6422 6442 0
-6442 6439 6438 0
-6442 6439 6422 0
-6440 6443 0
-6439 -6422 6443 0
-6443 6440 6439 0
-6443 6440 6422 0
-6441 6444 0
-6423 6444 0
-6444 6441 6423 0
-6442 6445 0
-6441 -6423 6445 0
-6445 6442 6441 0
-6445 6442 6423 0
-6443 6446 0
-6442 -6423 6446 0
-6446 6443 6442 0
-6446 6443 6423 0
-6444 6447 0
-6424 6447 0
-6447 6444 6424 0
-6445 6448 0
-6444 -6424 6448 0
-6448 6445 6444 0
-6448 6445 6424 0
-6446 6449 0
-6445 -6424 6449 0
-6449 6446 6445 0
-6449 6446 6424 0
-6447 6450 0
-6425 6450 0
-6450 6447 6425 0
-6448 6451 0
-6447 -6425 6451 0
-6451 6448 6447 0
-6451 6448 6425 0
-6449 6452 0
-6448 -6425 6452 0
-6452 6449 6448 0
-6452 6449 6425 0
-6450 6453 0
-6426 6453 0
-6453 6450 6426 0
-6451 6454 0
-6450 -6426 6454 0
-6454 6451 6450 0
-6454 6451 6426 0
-6452 6455 0
-6451 -6426 6455 0
-6455 6452 6451 0
-6455 6452 6426 0
-6453 6456 0
-6427 6456 0
-6456 6453 6427 0
-6454 6457 0
-6453 -6427 6457 0
-6457 6454 6453 0
-6457 6454 6427 0
-6455 6458 0
-6454 -6427 6458 0
-6458 6455 6454 0
-6458 6455 6427 0
-6456 6459 0
-6428 6459 0
-6459 6456 6428 0
-6457 6460 0
-6456 -6428 6460 0
-6460 6457 6456 0
-6460 6457 6428 0
-6458 6461 0
-6457 -6428 6461 0
-6461 6458 6457 0
-6461 6458 6428 0
-6459 6462 0
-6429 6462 0
-6462 6459 6429 0
-6460 6463 0
-6459 -6429 6463 0
-6463 6460 6459 0
-6463 6460 6429 0
-6461 6464 0
-6460 -6429 6464 0
-6464 6461 6460 0
-6464 6461 6429 0
-6462 6465 0
-6430 6465 0
-6465 6462 6430 0
-6463 6466 0
-6462 -6430 6466 0
-6466 6463 6462 0
-6466 6463 6430 0
-6464 6467 0
-6463 -6430 6467 0
-6467 6464 6463 0
-6467 6464 6430 0
-6465 6468 0
-6431 6468 0
-6468 6465 6431 0
-6466 6469 0
-6465 -6431 6469 0
-6469 6466 6465 0
-6469 6466 6431 0
-6467 6470 0
-6466 -6431 6470 0
-6470 6467 6466 0
-6470 6467 6431 0
6470 0
-6471 99 0
-6471 169 0
6471 -99 -169 0
-6472 100 0
-6472 170 0
6472 -100 -170 0
-6473 101 0
-6473 171 0
6473 -101 -171 0
-6474 102 0
-6474 172 0
6474 -102 -172 0
-6475 103 0
-6475 173 0
6475 -103 -173 0
-6476 104 0
-6476 174 0
6476 -104 -174 0
-6477 105 0
-6477 175 0
6477 -105 -175 0
-6478 106 0
-6478 176 0
6478 -106 -176 0
-6479 107 0
-6479 177 0
6479 -107 -177 0
-6480 108 0
-6480 178 0
6480 -108 -178 0
-6481 109 0
-6481 179 0
6481 -109 -179 0
-6482 110 0
-6482 180 0
6482 -110 -180 0
-6483 111 0
-6483 181 0
6483 -111 -181 0
-6484 112 0
-6484 182 0
6484 -112 -182 0
-6471 6485 0
-6485 6471 0
-6485 6486 0
-6472 6486 0
-6486 6485 6472 0
-6485 -6472 6487 0
-6487 6485 0
-6487 6472 0
-6486 6488 0
-6473 6488 0
-6488 6486 6473 0
-6487 6489 0
-6486 -6473 6489 0
-6489 6487 6486 0
-6489 6487 6473 0
-6487 -6473 6490 0
-6490 6487 0
-6490 6473 0
-6488 6491 0
-6474 6491 0
-6491 6488 6474 0
-6489 6492 0
-6488 -6474 6492 0
-6492 6489 6488 0
-6492 6489 6474 0
-6490 6493 0
-6489 -6474 6493 0
-6493 6490 6489 0
-6493 6490 6474 0
-6491 6494 0
-6475 6494 0
-6494 6491 6475 0
-6492 6495 0
-6491 -6475 6495 0
-6495 6492 6491 0
-6495 6492 6475 0
-6493 6496 0
-6492 -6475 6496 0
-6496 6493 6492 0
-6496 6493 6475 0
-6494 6497 0
-6476 6497 0
-6497 6494 6476 0
-6495 6498 0
-6494 -6476 6498 0
-6498 6495 6494 0
-6498 6495 6476 0
-6496 6499 0
-6495 -6476 6499 0
-6499 6496 6495 0
-6499 6496 6476 0
-6497 6500 0
-6477 6500 0
-6500 6497 6477 0
-6498 6501 0
-6497 -6477 6501 0
-6501 6498 6497 0
-6501 6498 6477 0
-6499 6502 0
-6498 -6477 6502 0
-6502 6499 6498 0
-6502 6499 6477 0
-6500 6503 0
-6478 6503 0
-6503 6500 6478 0
-6501 6504 0
-6500 -6478 6504 0
-6504 6501 6500 0
-6504 6501 6478 0
-6502 6505 0
-6501 -6478 6505 0
-6505 6502 6501 0
-6505 6502 6478 0
-6503 6506 0
-6479 6506 0
-6506 6503 6479 0
-6504 6507 0
-6503 -6479 6507 0
-6507 6504 6503 0
-6507 6504 6479 0
-6505 6508 0
-6504 -6479 6508 0
-6508 6505 6504 0
-6508 6505 6479 0
-6506 6509 0
-6480 6509 0
-6509 6506 6480 0
-6507 6510 0
-6506 -6480 6510 0
-6510 6507 6506 0
-6510 6507 6480 0
-6508 6511 0
-6507 -6480 6511 0
-6511 6508 6507 0
-6511 6508 6480 0
-6509 6512 0
-6481 6512 0
-6512 6509 6481 0
-6510 6513 0
-6509 -6481 6513 0
-6513 6510 6509 0
-6513 6510 6481 0
-6511 6514 0
-6510 -6481 6514 0
-6514 6511 6510 0
-6514 6511 6481 0
-6512 6515 0
-6482 6515 0
-6515 6512 6482 0
-6513 6516 0
-6512 -6482 6516 0
-6516 6513 6512 0
-6516 6513 6482 0
-6514 6517 0
-6513 -6482 6517 0
-6517 6514 6513 0
-6517 6514 6482 0
-6515 6518 0
-6483 6518 0
-6518 6515 6483 0
-6516 6519 0
-6515 -6483 6519 0
-6519 6516 6515 0
-6519 6516 6483 0
-6517 6520 0
-6516 -6483 6520 0
-6520 6517 6516 0
-6520 6517 6483 0
-6518 6521 0
-6484 6521 0
-6521 6518 6484 0
-6519 6522 0
-6518 -6484 6522 0
-6522 6519 6518 0
-6522 6519 6484 0
-6520 6523 0
-6519 -6484 6523 0
-6523 6520 6519 0
-6523 6520 6484 0
6523 0
-6524 99 0
-6524 183 0
6524 -99 -183 0
-6525 100 0
-6525 184 0
6525 -100 -184 0
-6526 101 0
-6526 185 0
6526 -101 -185 0
-6527 102 0
-6527 186 0
6527 -102 -186 0
-6528 103 0
-6528 187 0
6528 -103 -187 0
-6529 104 0
-6529 188 0
6529 -104 -188 0
-6530 105 0
-6530 189 0
6530 -105 -189 0
-6531 106 0
-6531 190 0
6531 -106 -190 0
-6532 107 0
-6532 191 0
6532 -107 -191 0
-6533 108 0
-6533 192 0
6533 -108 -192 0
-6534 109 0
-6534 193 0
6534 -109 -193 0
-6535 110 0
-6535 194 0
6535 -110 -194 0
-6536 111 0
-6536 195 0
6536 -111 -195 0
-6537 112 0
-6537 196 0
6537 -112 -196 0
-6524 6538 0
-6538 6524 0
-6538 6539 0
-6525 6539 0
-6539 6538 6525 0
-6538 -6525 6540 0
-6540 6538 0
-6540 6525 0
-6539 6541 0
-6526 6541 0
-6541 6539 6526 0
-6540 6542 0
-6539 -6526 6542 0
-6542 6540 6539 0
-6542 6540 6526 0
-6540 -6526 6543 0
-6543 6540 0
-6543 6526 0
-6541 6544 0
-6527 6544 0
-6544 6541 6527 0
-6542 6545 0
-6541 -6527 6545 0
-6545 6542 6541 0
-6545 6542 6527 0
-6543 6546 0
-6542 -6527 6546 0
-6546 6543 6542 0
-6546 6543 6527 0
-6544 6547 0
-6528 6547 0
-6547 6544 6528 0
-6545 6548 0
-6544 -6528 6548 0
-6548 6545 6544 0
-6548 6545 6528 0
-6546 6549 0
-6545 -6528 6549 0
-6549 6546 6545 0
-6549 6546 6528 0
-6547 6550 0
-6529 6550 0
-6550 6547 6529 0
-6548 6551 0
-6547 -6529 6551 0
-6551 6548 6547 0
-6551 6548 6529 0
-6549 6552 0
-6548 -6529 6552 0
-6552 6549 6548 0
-6552 6549 6529 0
-6550 6553 0
-6530 6553 0
-6553 6550 6530 0
-6551 6554 0
-6550 -6530 6554 0
-6554 6551 6550 0
-6554 6551 6530 0
-6552 6555 0
-6551 -6530 6555 0
-6555 6552 6551 0
-6555 6552 6530 0
-6553 6556 0
-6531 6556 0
-6556 6553 6531 0
-6554 6557 0
-6553 -6531 6557 0
-6557 6554 6553 0
-6557 6554 6531 0
-6555 6558 0
-6554 -6531 6558 0
-6558 6555 6554 0
-6558 6555 6531 0
-6556 6559 0
-6532 6559 0
-6559 6556 6532 0
-6557 6560 0
-6556 -6532 6560 0
-6560 6557 6556 0
-6560 6557 6532 0
-6558 6561 0
-6557 -6532 6561 0
-6561 6558 6557 0
-6561 6558 6532 0
-6559 6562 0
-6533 6562 0
-6562 6559 6533 0
-6560 6563 0
-6559 -6533 6563 0
-6563 6560 6559 0
-6563 6560 6533 0
-6561 6564 0
-6560 -6533 6564 0
-6564 6561 6560 0
-6564 6561 6533 0
-6562 6565 0
-6534 6565 0
-6565 6562 6534 0
-6563 6566 0
-6562 -6534 6566 0
-6566 6563 6562 0
-6566 6563 6534 0
-6564 6567 0
-6563 -6534 6567 0
-6567 6564 6563 0
-6567 6564 6534 0
-6565 6568 0
-6535 6568 0
-6568 6565 6535 0
-6566 6569 0
-6565 -6535 6569 0
-6569 6566 6565 0
-6569 6566 6535 0
-6567 6570 0
-6566 -6535 6570 0
-6570 6567 6566 0
-6570 6567 6535 0
-6568 6571 0
-6536 6571 0
-6571 6568 6536 0
-6569 6572 0
-6568 -6536 6572 0
-6572 6569 6568 0
-6572 6569 6536 0
-6570 6573 0
-6569 -6536 6573 0
-6573 6570 6569 0
-6573 6570 6536 0
-6571 6574 0
-6537 6574 0
-6574 6571 6537 0
-6572 6575 0
-6571 -6537 6575 0
-6575 6572 6571 0
-6575 6572 6537 0
-6573 6576 0
-6572 -6537 6576 0
-6576 6573 6572 0
-6576 6573 6537 0
6576 0
-6577 113 0
-6577 127 0
6577 -113 -127 0
-6578 114 0
-6578 128 0
6578 -114 -128 0
-6579 115 0
-6579 129 0
6579 -115 -129 0
-6580 116 0
-6580 130 0
6580 -116 -130 0
-6581 117 0
-6581 131 0
6581 -117 -131 0
-6582 118 0
-6582 132 0
6582 -118 -132 0
-6583 119 0
-6583 133 0
6583 -119 -133 0
-6584 120 0
-6584 134 0
6584 -120 -134 0
-6585 121 0
-6585 135 0
6585 -121 -135 0
-6586 122 0
-6586 136 0
6586 -122 -136 0
-6587 123 0
-6587 137 0
6587 -123 -137 0
-6588 124 0
-6588 138 0
6588 -124 -138 0
-6589 125 0
-6589 139 0
6589 -125 -139 0
-6590 126 0
-6590 140 0
6590 -126 -140 0
-6577 6591 0
-6591 6577 0
-6591 6592 0
-6578 6592 0
-6592 6591 6578 0
-6591 -6578 6593 0
-6593 6591 0
-6593 6578 0
-6592 6594 0
-6579 6594 0
-6594 6592 6579 0
-6593 6595 0
-6592 -6579 6595 0
-6595 6593 6592 0
-6595 6593 6579 0
-6593 -6579 6596 0
-6596 6593 0
-6596 6579 0
-6594 6597 0
-6580 6597 0
-6597 6594 6580 0
-6595 6598 0
-6594 -6580 6598 0
-6598 6595 6594 0
-6598 6595 6580 0
-6596 6599 0
-6595 -6580 6599 0
-6599 6596 6595 0
-6599 6596 6580 0
-6597 6600 0
-6581 6600 0
-6600 6597 6581 0
-6598 6601 0
-6597 -6581 6601 0
-6601 6598 6597 0
-6601 6598 6581 0
-6599 6602 0
-6598 -6581 6602 0
-6602 6599 6598 0
-6602 6599 6581 0
-6600 6603 0
-6582 6603 0
-6603 6600 6582 0
-6601 6604 0
-6600 -6582 6604 0
-6604 6601 6600 0
-6604 6601 6582 0
-6602 6605 0
-6601 -6582 6605 0
-6605 6602 6601 0
-6605 6602 6582 0
-6603 6606 0
-6583 6606 0
-6606 6603 6583 0
-6604 6607 0
-6603 -6583 6607 0
-6607 6604 6603 0
-6607 6604 6583 0
-6605 6608 0
-6604 -6583 6608 0
-6608 6605 6604 0
-6608 6605 6583 0
-6606 6609 0
-6584 6609 0
-6609 6606 6584 0
-6607 6610 0
-6606 -6584 6610 0
-6610 6607 6606 0
-6610 6607 6584 0
-6608 6611 0
-6607 -6584 6611 0
-6611 6608 6607 0
-6611 6608 6584 0
-6609 6612 0
-6585 6612 0
-6612 6609 6585 0
-6610 6613 0
-6609 -6585 6613 0
-6613 6610 6609 0
-6613 6610 6585 0
-6611 6614 0
-6610 -6585 6614 0
-6614 6611 6610 0
-6614 6611 6585 0
-6612 6615 0
-6586 6615 0
-6615 6612 6586 0
-6613 6616 0
-6612 -6586 6616 0
-6616 6613 6612 0
-6616 6613 6586 0
-6614 6617 0
-6613 -6586 6617 0
-6617 6614 6613 0
-6617 6614 6586 0
-6615 6618 0
-6587 6618 0
-6618 6615 6587 0
-6616 6619 0
-6615 -6587 6619 0
-6619 6616 6615 0
-6619 6616 6587 0
-6617 6620 0
-6616 -6587 6620 0
-6620 6617 6616 0
-6620 6617 6587 0
-6618 6621 0
-6588 6621 0
-6621 6618 6588 0
-6619 6622 0
-6618 -6588 6622 0
-6622 6619 6618 0
-6622 6619 6588 0
-6620 6623 0
-6619 -6588 6623 0
-6623 6620 6619 0
-6623 6620 6588 0
-6621 6624 0
-6589 6624 0
-6624 6621 6589 0
-6622 6625 0
-6621 -6589 6625 0
-6625 6622 6621 0
-6625 6622 6589 0
-6623 6626 0
-6622 -6589 6626 0
-6626 6623 6622 0
-6626 6623 6589 0
-6624 6627 0
-6590 6627 0
-6627 6624 6590 0
-6625 6628 0
-6624 -6590 6628 0
-6628 6625 6624 0
-6628 6625 6590 0
-6626 6629 0
-6625 -6590 6629 0
-6629 6626 6625 0
-6629 6626 6590 0
6629 0
-6630 113 0
-6630 141 0
6630 -113 -141 0
-6631 114 0
-6631 142 0
6631 -114 -142 0
-6632 115 0
-6632 143 0
6632 -115 -143 0
-6633 116 0
-6633 144 0
6633 -116 -144 0
-6634 117 0
-6634 145 0
6634 -117 -145 0
-6635 118 0
-6635 146 0
6635 -118 -146 0
-6636 119 0
-6636 147 0
6636 -119 -147 0
-6637 120 0
-6637 148 0
6637 -120 -148 0
-6638 121 0
-6638 149 0
6638 -121 -149 0
-6639 122 0
-6639 150 0
6639 -122 -150 0
-6640 123 0
-6640 151 0
6640 -123 -151 0
-6641 124 0
-6641 152 0
6641 -124 -152 0
-6642 125 0
-6642 153 0
6642 -125 -153 0
-6643 126 0
-6643 154 0
6643 -126 -154 0
-6630 6644 0
-6644 6630 0
-6644 6645 0
-6631 6645 0
-6645 6644 6631 0
-6644 -6631 6646 0
-6646 6644 0
-6646 6631 0
-6645 6647 0
-6632 6647 0
-6647 6645 6632 0
-6646 6648 0
-6645 -6632 6648 0
-6648 6646 6645 0
-6648 6646 6632 0
-6646 -6632 6649 0
-6649 6646 0
-6649 6632 0
-6647 6650 0
-6633 6650 0
-6650 6647 6633 0
-6648 6651 0
-6647 -6633 6651 0
-6651 6648 6647 0
-6651 6648 6633 0
-6649 6652 0
-6648 -6633 6652 0
-6652 6649 6648 0
-6652 6649 6633 0
-6650 6653 0
-6634 6653 0
-6653 6650 6634 0
-6651 6654 0
-6650 -6634 6654 0
-6654 6651 6650 0
-6654 6651 6634 0
-6652 6655 0
-6651 -6634 6655 0
-6655 6652 6651 0
-6655 6652 6634 0
-6653 6656 0
-6635 6656 0
-6656 6653 6635 0
-6654 6657 0
-6653 -6635 6657 0
-6657 6654 6653 0
-6657 6654 6635 0
-6655 6658 0
-6654 -6635 6658 0
-6658 6655 6654 0
-6658 6655 6635 0
-6656 6659 0
-6636 6659 0
-6659 6656 6636 0
-6657 6660 0
-6656 -6636 6660 0
-6660 6657 6656 0
-6660 6657 6636 0
-6658 6661 0
-6657 -6636 6661 0
-6661 6658 6657 0
-6661 6658 6636 0
-6659 6662 0
-6637 6662 0
-6662 6659 6637 0
-6660 6663 0
-6659 -6637 6663 0
-6663 6660 6659 0
-6663 6660 6637 0
-6661 6664 0
-6660 -6637 6664 0
-6664 6661 6660 0
-6664 6661 6637 0
-6662 6665 0
-6638 6665 0
-6665 6662 6638 0
-6663 6666 0
-6662 -6638 6666 0
-6666 6663 6662 0
-6666 6663 6638 0
-6664 6667 0
-6663 -6638 6667 0
-6667 6664 6663 0
-6667 6664 6638 0
-6665 6668 0
-6639 6668 0
-6668 6665 6639 0
-6666 6669 0
-6665 -6639 6669 0
-6669 6666 6665 0
-6669 6666 6639 0
-6667 6670 0
-6666 -6639 6670 0
-6670 6667 6666 0
-6670 6667 6639 0
-6668 6671 0
-6640 6671 0
-6671 6668 6640 0
-6669 6672 0
-6668 -6640 6672 0
-6672 6669 6668 0
-6672 6669 6640 0
-6670 6673 0
-6669 -6640 6673 0
-6673 6670 6669 0
-6673 6670 6640 0
-6671 6674 0
-6641 6674 0
-6674 6671 6641 0
-6672 6675 0
-6671 -6641 6675 0
-6675 6672 6671 0
-6675 6672 6641 0
-6673 6676 0
-6672 -6641 6676 0
-6676 6673 6672 0
-6676 6673 6641 0
-6674 6677 0
-6642 6677 0
-6677 6674 6642 0
-6675 6678 0
-6674 -6642 6678 0
-6678 6675 6674 0
-6678 6675 6642 0
-6676 6679 0
-6675 -6642 6679 0
-6679 6676 6675 0
-6679 6676 6642 0
-6677 6680 0
-6643 6680 0
-6680 6677 6643 0
-6678 6681 0
-6677 -6643 6681 0
-6681 6678 6677 0
-6681 6678 6643 0
-6679 6682 0
-6678 -6643 6682 0
-6682 6679 6678 0
-6682 6679 6643 0
6682 0
-6683 113 0
-6683 155 0
6683 -113 -155 0
-6684 114 0
-6684 156 0
6684 -114 -156 0
-6685 115 0
-6685 157 0
6685 -115 -157 0
-6686 116 0
-6686 158 0
6686 -116 -158 0
-6687 117 0
-6687 159 0
6687 -117 -159 0
-6688 118 0
-6688 160 0
6688 -118 -160 0
-6689 119 0
-6689 161 0
6689 -119 -161 0
-6690 120 0
-6690 162 0
6690 -120 -162 0
-6691 121 0
-6691 163 0
6691 -121 -163 0
-6692 122 0
-6692 164 0
6692 -122 -164 0
-6693 123 0
-6693 165 0
6693 -123 -165 0
-6694 124 0
-6694 166 0
6694 -124 -166 0
-6695 125 0
-6695 167 0
6695 -125 -167 0
-6696 126 0
-6696 168 0
6696 -126 -168 0
-6683 6697 0
-6697 6683 0
-6697 6698 0
-6684 6698 0
-6698 6697 6684 0
-6697 -6684 6699 0
-6699 6697 0
-6699 6684 0
-6698 6700 0
-6685 6700 0
-6700 6698 6685 0
-6699 6701 0
-6698 -6685 6701 0
-6701 6699 6698 0
-6701 6699 6685 0
-6699 -6685 6702 0
-6702 6699 0
-6702 6685 0
-6700 6703 0
-6686 6703 0
-6703 6700 6686 0
-6701 6704 0
-6700 -6686 6704 0
-6704 6701 6700 0
-6704 6701 6686 0
-6702 6705 0
-6701 -6686 6705 0
-6705 6702 6701 0
-6705 6702 6686 0
-6703 6706 0
-6687 6706 0
-6706 6703 6687 0
-6704 6707 0
-6703 -6687 6707 0
-6707 6704 6703 0
-6707 6704 6687 0
-6705 6708 0
-6704 -6687 6708 0
-6708 6705 6704 0
-6708 6705 6687 0
-6706 6709 0
-6688 6709 0
-6709 6706 6688 0
-6707 6710 0
-6706 -6688 6710 0
-6710 6707 6706 0
-6710 6707 6688 0
-6708 6711 0
-6707 -6688 6711 0
-6711 6708 6707 0
-6711 6708 6688 0
-6709 6712 0
-6689 6712 0
-6712 6709 6689 0
-6710 6713 0
-6709 -6689 6713 0
-6713 6710 6709 0
-6713 6710 6689 0
-6711 6714 0
-6710 -6689 6714 0
-6714 6711 6710 0
-6714 6711 6689 0
-6712 6715 0
-6690 6715 0
-6715 6712 6690 0
-6713 6716 0
-6712 -6690 6716 0
-6716 6713 6712 0
-6716 6713 6690 0
-6714 6717 0
-6713 -6690 6717 0
-6717 6714 6713 0
-6717 6714 6690 0
-6715 6718 0
-6691 6718 0
-6718 6715 6691 0
-6716 6719 0
-6715 -6691 6719 0
-6719 6716 6715 0
-6719 6716 6691 0
-6717 6720 0
-6716 -6691 6720 0
-6720 6717 6716 0
-6720 6717 6691 0
-6718 6721 0
-6692 6721 0
-6721 6718 6692 0
-6719 6722 0
-6718 -6692 6722 0
-6722 6719 6718 0
-6722 6719 6692 0
-6720 6723 0
-6719 -6692 6723 0
-6723 6720 6719 0
-6723 6720 6692 0
-6721 6724 0
-6693 6724 0
-6724 6721 6693 0
-6722 6725 0
-6721 -6693 6725 0
-6725 6722 6721 0
-6725 6722 6693 0
-6723 6726 0
-6722 -6693 6726 0
-6726 6723 6722 0
-6726 6723 6693 0
-6724 6727 0
-6694 6727 0
-6727 6724 6694 0
-6725 6728 0
-6724 -6694 6728 0
-6728 6725 6724 0
-6728 6725 6694 0
-6726 6729 0
-6725 -6694 6729 0
-6729 6726 6725 0
-6729 6726 6694 0
-6727 6730 0
-6695 6730 0
-6730 6727 6695 0
-6728 6731 0
-6727 -6695 6731 0
-6731 6728 6727 0
-6731 6728 6695 0
-6729 6732 0
-6728 -6695 6732 0
-6732 6729 6728 0
-6732 6729 6695 0
-6730 6733 0
-6696 6733 0
-6733 6730 6696 0
-6731 6734 0
-6730 -6696 6734 0
-6734 6731 6730 0
-6734 6731 6696 0
-6732 6735 0
-6731 -6696 6735 0
-6735 6732 6731 0
-6735 6732 6696 0
6735 0
-6736 113 0
-6736 169 0
6736 -113 -169 0
-6737 114 0
-6737 170 0
6737 -114 -170 0
-6738 115 0
-6738 171 0
6738 -115 -171 0
-6739 116 0
-6739 172 0
6739 -116 -172 0
-6740 117 0
-6740 173 0
6740 -117 -173 0
-6741 118 0
-6741 174 0
6741 -118 -174 0
-6742 119 0
-6742 175 0
6742 -119 -175 0
-6743 120 0
-6743 176 0
6743 -120 -176 0
-6744 121 0
-6744 177 0
6744 -121 -177 0
-6745 122 0
-6745 178 0
6745 -122 -178 0
-6746 123 0
-6746 179 0
6746 -123 -179 0
-6747 124 0
-6747 180 0
6747 -124 -180 0
-6748 125 0
-6748 181 0
6748 -125 -181 0
-6749 126 0
-6749 182 0
6749 -126 -182 0
-6736 6750 0
-6750 6736 0
-6750 6751 0
-6737 6751 0
-6751 6750 6737 0
-6750 -6737 6752 0
-6752 6750 0
-6752 6737 0
-6751 6753 0
-6738 6753 0
-6753 6751 6738 0
-6752 6754 0
-6751 -6738 6754 0
-6754 6752 6751 0
-6754 6752 6738 0
-6752 -6738 6755 0
-6755 6752 0
-6755 6738 0
-6753 6756 0
-6739 6756 0
-6756 6753 6739 0
-6754 6757 0
-6753 -6739 6757 0
-6757 6754 6753 0
-6757 6754 6739 0
-6755 6758 0
-6754 -6739 6758 0
-6758 6755 6754 0
-6758 6755 6739 0
-6756 6759 0
-6740 6759 0
-6759 6756 6740 0
-6757 6760 0
-6756 -6740 6760 0
-6760 6757 6756 0
-6760 6757 6740 0
-6758 6761 0
-6757 -6740 6761 0
-6761 6758 6757 0
-6761 6758 6740 0
-6759 6762 0
-6741 6762 0
-6762 6759 6741 0
-6760 6763 0
-6759 -6741 6763 0
-6763 6760 6759 0
-6763 6760 6741 0
-6761 6764 0
-6760 -6741 6764 0
-6764 6761 6760 0
-6764 6761 6741 0
-6762 6765 0
-6742 6765 0
-6765 6762 6742 0
-6763 6766 0
-6762 -6742 6766 0
-6766 6763 6762 0
-6766 6763 6742 0
-6764 6767 0
-6763 -6742 6767 0
-6767 6764 6763 0
-6767 6764 6742 0
-6765 6768 0
-6743 6768 0
-6768 6765 6743 0
-6766 6769 0
-6765 -6743 6769 0
-6769 6766 6765 0
-6769 6766 6743 0
-6767 6770 0
-6766 -6743 6770 0
-6770 6767 6766 0
-6770 6767 6743 0
-6768 6771 0
-6744 6771 0
-6771 6768 6744 0
-6769 6772 0
-6768 -6744 6772 0
-6772 6769 6768 0
-6772 6769 6744 0
-6770 6773 0
-6769 -6744 6773 0
-6773 6770 6769 0
-6773 6770 6744 0
-6771 6774 0
-6745 6774 0
-6774 6771 6745 0
-6772 6775 0
-6771 -6745 6775 0
-6775 6772 6771 0
-6775 6772 6745 0
-6773 6776 0
-6772 -6745 6776 0
-6776 6773 6772 0
-6776 6773 6745 0
-6774 6777 0
-6746 6777 0
-6777 6774 6746 0
-6775 6778 0
-6774 -6746 6778 0
-6778 6775 6774 0
-6778 6775 6746 0
-6776 6779 0
-6775 -6746 6779 0
-6779 6776 6775 0
-6779 6776 6746 0
-6777 6780 0
-6747 6780 0
-6780 6777 6747 0
-6778 6781 0
-6777 -6747 6781 0
-6781 6778 6777 0
-6781 6778 6747 0
-6779 6782 0
-6778 -6747 6782 0
-6782 6779 6778 0
-6782 6779 6747 0
-6780 6783 0
-6748 6783 0
-6783 6780 6748 0
-6781 6784 0
-6780 -6748 6784 0
-6784 6781 6780 0
-6784 6781 6748 0
-6782 6785 0
-6781 -6748 6785 0
-6785 6782 6781 0
-6785 6782 6748 0
-6783 6786 0
-6749 6786 0
-6786 6783 6749 0
-6784 6787 0
-6783 -6749 6787 0
-6787 6784 6783 0
-6787 6784 6749 0
-6785 6788 0
-6784 -6749 6788 0
-6788 6785 6784 0
-6788 6785 6749 0
6788 0
-6789 113 0
-6789 183 0
6789 -113 -183 0
-6790 114 0
-6790 184 0
6790 -114 -184 0
-6791 115 0
-6791 185 0
6791 -115 -185 0
-6792 116 0
-6792 186 0
6792 -116 -186 0
-6793 117 0
-6793 187 0
6793 -117 -187 0
-6794 118 0
-6794 188 0
6794 -118 -188 0
-6795 119 0
-6795 189 0
6795 -119 -189 0
-6796 120 0
-6796 190 0
6796 -120 -190 0
-6797 121 0
-6797 191 0
6797 -121 -191 0
-6798 122 0
-6798 192 0
6798 -122 -192 0
-6799 123 0
-6799 193 0
6799 -123 -193 0
-6800 124 0
-6800 194 0
6800 -124 -194 0
-6801 125 0
-6801 195 0
6801 -125 -195 0
-6802 126 0
-6802 196 0
6802 -126 -196 0
-6789 6803 0
-6803 6789 0
-6803 6804 0
-6790 6804 0
-6804 6803 6790 0
-6803 -6790 6805 0
-6805 6803 0
-6805 6790 0
-6804 6806 0
-6791 6806 0
-6806 6804 6791 0
-6805 6807 0
-6804 -6791 6807 0
-6807 6805 6804 0
-6807 6805 6791 0
-6805 -6791 6808 0
-6808 6805 0
-6808 6791 0
-6806 6809 0
-6792 6809 0
-6809 6806 6792 0
-6807 6810 0
-6806 -6792 6810 0
-6810 6807 6806 0
-6810 6807 6792 0
-6808 6811 0
-6807 -6792 6811 0
-6811 6808 6807 0
-6811 6808 6792 0
-6809 6812 0
-6793 6812 0
-6812 6809 6793 0
-6810 6813 0
-6809 -6793 6813 0
-6813 6810 6809 0
-6813 6810 6793 0
-6811 6814 0
-6810 -6793 6814 0
-6814 6811 6810 0
-6814 6811 6793 0
-6812 6815 0
-6794 6815 0
-6815 6812 6794 0
-6813 6816 0
-6812 -6794 6816 0
-6816 6813 6812 0
-6816 6813 6794 0
-6814 6817 0
-6813 -6794 6817 0
-6817 6814 6813 0
-6817 6814 6794 0
-6815 6818 0
-6795 6818 0
-6818 6815 6795 0
-6816 6819 0
-6815 -6795 6819 0
-6819 6816 6815 0
-6819 6816 6795 0
-6817 6820 0
-6816 -6795 6820 0
-6820 6817 6816 0
-6820 6817 6795 0
-6818 6821 0
-6796 6821 0
-6821 6818 6796 0
-6819 6822 0
-6818 -6796 6822 0
-6822 6819 6818 0
-6822 6819 6796 0
-6820 6823 0
-6819 -6796 6823 0
-6823 6820 6819 0
-6823 6820 6796 0
-6821 6824 0
-6797 6824 0
-6824 6821 6797 0
-6822 6825 0
-6821 -6797 6825 0
-6825 6822 6821 0
-6825 6822 6797 0
-6823 6826 0
-6822 -6797 6826 0
-6826 6823 6822 0
-6826 6823 6797 0
-6824 6827 0
-6798 6827 0
-6827 6824 6798 0
-6825 6828 0
-6824 -6798 6828 0
-6828 6825 6824 0
-6828 6825 6798 0
-6826 6829 0
-6825 -6798 6829 0
-6829 6826 6825 0
-6829 6826 6798 0
-6827 6830 0
-6799 6830 0
-6830 6827 6799 0
-6828 6831 0
-6827 -6799 6831 0
-6831 6828 6827 0
-6831 6828 6799 0
-6829 6832 0
-6828 -6799 6832 0
-6832 6829 6828 0
-6832 6829 6799 0
-6830 6833 0
-6800 6833 0
-6833 6830 6800 0
-6831 6834 0
-6830 -6800 6834 0
-6834 6831 6830 0
-6834 6831 6800 0
-6832 6835 0
-6831 -6800 6835 0
-6835 6832 6831 0
-6835 6832 6800 0
-6833 6836 0
-6801 6836 0
-6836 6833 6801 0
-6834 6837 0
-6833 -6801 6837 0
-6837 6834 6833 0
-6837 6834 6801 0
-6835 6838 0
-6834 -6801 6838 0
-6838 6835 6834 0
-6838 6835 6801 0
-6836 6839 0
-6802 6839 0
-6839 6836 6802 0
-6837 6840 0
-6836 -6802 6840 0
-6840 6837 6836 0
-6840 6837 6802 0
-6838 6841 0
-6837 -6802 6841 0
-6841 6838 6837 0
-6841 6838 6802 0
6841 0
-6842 127 0
-6842 141 0
6842 -127 -141 0
-6843 128 0
-6843 142 0
6843 -128 -142 0
-6844 129 0
-6844 143 0
6844 -129 -143 0
-6845 130 0
-6845 144 0
6845 -130 -144 0
-6846 131 0
-6846 145 0
6846 -131 -145 0
-6847 132 0
-6847 146 0
6847 -132 -146 0
-6848 133 0
-6848 147 0
6848 -133 -147 0
-6849 134 0
-6849 148 0
6849 -134 -148 0
-6850 135 0
-6850 149 0
6850 -135 -149 0
-6851 136 0
-6851 150 0
6851 -136 -150 0
-6852 137 0
-6852 151 0
6852 -137 -151 0
-6853 138 0
-6853 152 0
6853 -138 -152 0
-6854 139 0
-6854 153 0
6854 -139 -153 0
-6855 140 0
-6855 154 0
6855 -140 -154 0
-6842 6856 0
-6856 6842 0
-6856 6857 0
-6843 6857 0
-6857 6856 6843 0
-6856 -6843 6858 0
-6858 6856 0
-6858 6843 0
-6857 6859 0
-6844 6859 0
-6859 6857 6844 0
-6858 6860 0
-6857 -6844 6860 0
-6860 6858 6857 0
-6860 6858 6844 0
-6858 -6844 6861 0
-6861 6858 0
-6861 6844 0
-6859 6862 0
-6845 6862 0
-6862 6859 6845 0
-6860 6863 0
-6859 -6845 6863 0
-6863 6860 6859 0
-6863 6860 6845 0
-6861 6864 0
-6860 -6845 6864 0
-6864 6861 6860 0
-6864 6861 6845 0
-6862 6865 0
-6846 6865 0
-6865 6862 6846 0
-6863 6866 0
-6862 -6846 6866 0
-6866 6863 6862 0
-6866 6863 6846 0
-6864 6867 0
-6863 -6846 6867 0
-6867 6864 6863 0
-6867 6864 6846 0
-6865 6868 0
-6847 6868 0
-6868 6865 6847 0
-6866 6869 0
-6865 -6847 6869 0
-6869 6866 6865 0
-6869 6866 6847 0
-6867 6870 0
-6866 -6847 6870 0
-6870 6867 6866 0
-6870 6867 6847 0
-6868 6871 0
-6848 6871 0
-6871 6868 6848 0
-6869 6872 0
-6868 -6848 6872 0
-6872 6869 6868 0
-6872 6869 6848 0
-6870 6873 0
-6869 -6848 6873 0
-6873 6870 6869 0
-6873 6870 6848 0
-6871 6874 0
-6849 6874 0
-6874 6871 6849 0
-6872 6875 0
-6871 -6849 6875 0
-6875 6872 6871 0
-6875 6872 6849 0
-6873 6876 0
-6872 -6849 6876 0
-6876 6873 6872 0
-6876 6873 6849 0
-6874 6877 0
-6850 6877 0
-6877 6874 6850 0
-6875 6878 0
-6874 -6850 6878 0
-6878 6875 6874 0
-6878 6875 6850 0
-6876 6879 0
-6875 -6850 6879 0
-6879 6876 6875 0
-6879 6876 6850 0
-6877 6880 0
-6851 6880 0
-6880 6877 6851 0
-6878 6881 0
-6877 -6851 6881 0
-6881 6878 6877 0
-6881 6878 6851 0
-6879 6882 0
-6878 -6851 6882 0
-6882 6879 6878 0
-6882 6879 6851 0
-6880 6883 0
-6852 6883 0
-6883 6880 6852 0
-6881 6884 0
-6880 -6852 6884 0
-6884 6881 6880 0
-6884 6881 6852 0
-6882 6885 0
-6881 -6852 6885 0
-6885 6882 6881 0
-6885 6882 6852 0
-6883 6886 0
-6853 6886 0
-6886 6883 6853 0
-6884 6887 0
-6883 -6853 6887 0
-6887 6884 6883 0
-6887 6884 6853 0
-6885 6888 0
-6884 -6853 6888 0
-6888 6885 6884 0
-6888 6885 6853 0
-6886 6889 0
-6854 6889 0
-6889 6886 6854 0
-6887 6890 0
-6886 -6854 6890 0
-6890 6887 6886 0
-6890 6887 6854 0
-6888 6891 0
-6887 -6854 6891 0
-6891 6888 6887 0
-6891 6888 6854 0
-6889 6892 0
-6855 6892 0
-6892 6889 6855 0
-6890 6893 0
-6889 -6855 6893 0
-6893 6890 6889 0
-6893 6890 6855 0
-6891 6894 0
-6890 -6855 6894 0
-6894 6891 6890 0
-6894 6891 6855 0
6894 0
-6895 127 0
-6895 155 0
6895 -127 -155 0
-6896 128 0
-6896 156 0
6896 -128 -156 0
-6897 129 0
-6897 157 0
6897 -129 -157 0
-6898 130 0
-6898 158 0
6898 -130 -158 0
-6899 131 0
-6899 159 0
6899 -131 -159 0
-6900 132 0
-6900 160 0
6900 -132 -160 0
-6901 133 0
-6901 161 0
6901 -133 -161 0
-6902 134 0
-6902 162 0
6902 -134 -162 0
-6903 135 0
-6903 163 0
6903 -135 -163 0
-6904 136 0
-6904 164 0
6904 -136 -164 0
-6905 137 0
-6905 165 0
6905 -137 -165 0
-6906 138 0
-6906 166 0
6906 -138 -166 0
-6907 139 0
-6907 167 0
6907 -139 -167 0
-6908 140 0
-6908 168 0
6908 -140 -168 0
-6895 6909 0
-6909 6895 0
-6909 6910 0
-6896 6910 0
-6910 6909 6896 0
-6909 -6896 6911 0
-6911 6909 0
-6911 6896 0
-6910 6912 0
-6897 6912 0
-6912 6910 6897 0
-6911 6913 0
-6910 -6897 6913 0
-6913 6911 6910 0
-6913 6911 6897 0
-6911 -6897 6914 0
-6914 6911 0
-6914 6897 0
-6912 6915 0
-6898 6915 0
-6915 6912 6898 0
-6913 6916 0
-6912 -6898 6916 0
-6916 6913 6912 0
-6916 6913 6898 0
-6914 6917 0
-6913 -6898 6917 0
-6917 6914 6913 0
-6917 6914 6898 0
-6915 6918 0
-6899 6918 0
-6918 6915 6899 0
-6916 6919 0
-6915 -6899 6919 0
-6919 6916 6915 0
-6919 6916 6899 0
-6917 6920 0
-6916 -6899 6920 0
-6920 6917 6916 0
-6920 6917 6899 0
-6918 6921 0
-6900 6921 0
-6921 6918 6900 0
-6919 6922 0
-6918 -6900 6922 0
-6922 6919 6918 0
-6922 6919 6900 0
-6920 6923 0
-6919 -6900 6923 0
-6923 6920 6919 0
-6923 6920 6900 0
-6921 6924 0
-6901 6924 0
-6924 6921 6901 0
-6922 6925 0
-6921 -6901 6925 0
-6925 6922 6921 0
-6925 6922 6901 0
-6923 6926 0
-6922 -6901 6926 0
-6926 6923 6922 0
-6926 6923 6901 0
-6924 6927 0
-6902 6927 0
-6927 6924 6902 0
-6925 6928 0
-6924 -6902 6928 0
-6928 6925 6924 0
-6928 6925 6902 0
-6926 6929 0
-6925 -6902 6929 0
-6929 6926 6925 0
-6929 6926 6902 0
-6927 6930 0
-6903 6930 0
-6930 6927 6903 0
-6928 6931 0
-6927 -6903 6931 0
-6931 6928 6927 0
-6931 6928 6903 0
-6929 6932 0
-6928 -6903 6932 0
-6932 6929 6928 0
-6932 6929 6903 0
-6930 6933 0
-6904 6933 0
-6933 6930 6904 0
-6931 6934 0
-6930 -6904 6934 0
-6934 6931 6930 0
-6934 6931 6904 0
-6932 6935 0
-6931 -6904 6935 0
-6935 6932 6931 0
-6935 6932 6904 0
-6933 6936 0
-6905 6936 0
-6936 6933 6905 0
-6934 6937 0
-6933 -6905 6937 0
-6937 6934 6933 0
-6937 6934 6905 0
-6935 6938 0
-6934 -6905 6938 0
-6938 6935 6934 0
-6938 6935 6905 0
-6936 6939 0
-6906 6939 0
-6939 6936 6906 0
-6937 6940 0
-6936 -6906 6940 0
-6940 6937 6936 0
-6940 6937 6906 0
-6938 6941 0
-6937 -6906 6941 0
-6941 6938 6937 0
-6941 6938 6906 0
-6939 6942 0
-6907 6942 0
-6942 6939 6907 0
-6940 6943 0
-6939 -6907 6943 0
-6943 6940 6939 0
-6943 6940 6907 0
-6941 6944 0
-6940 -6907 6944 0
-6944 6941 6940 0
-6944 6941 6907 0
-6942 6945 0
-6908 6945 0
-6945 6942 6908 0
-6943 6946 0
-6942 -6908 6946 0
-6946 6943 6942 0
-6946 6943 6908 0
-6944 6947 0
-6943 -6908 6947 0
-6947 6944 6943 0
-6947 6944 6908 0
6947 0
-6948 127 0
-6948 169 0
6948 -127 -169 0
-6949 128 0
-6949 170 0
6949 -128 -170 0
-6950 129 0
-6950 171 0
6950 -129 -171 0
-6951 130 0
-6951 172 0
6951 -130 -172 0
-6952 131 0
-6952 173 0
6952 -131 -173 0
-6953 132 0
-6953 174 0
6953 -132 -174 0
-6954 133 0
-6954 175 0
6954 -133 -175 0
-6955 134 0
-6955 176 0
6955 -134 -176 0
-6956 135 0
-6956 177 0
6956 -135 -177 0
-6957 136 0
-6957 178 0
6957 -136 -178 0
-6958 137 0
-6958 179 0
6958 -137 -179 0
-6959 138 0
-6959 180 0
6959 -138 -180 0
-6960 139 0
-6960 181 0
6960 -139 -181 0
-6961 140 0
-6961 182 0
6961 -140 -182 0
-6948 6962 0
-6962 6948 0
-6962 6963 0
-6949 6963 0
-6963 6962 6949 0
-6962 -6949 6964 0
-6964 6962 0
-6964 6949 0
-6963 6965 0
-6950 6965 0
-6965 6963 6950 0
-6964 6966 0
-6963 -6950 6966 0
-6966 6964 6963 0
-6966 6964 6950 0
-6964 -6950 6967 0
-6967 6964 0
-6967 6950 0
-6965 6968 0
-6951 6968 0
-6968 6965 6951 0
-6966 6969 0
-6965 -6951 6969 0
-6969 6966 6965 0
-6969 6966 6951 0
-6967 6970 0
-6966 -6951 6970 0
-6970 6967 6966 0
-6970 6967 6951 0
-6968 6971 0
-6952 6971 0
-6971 6968 6952 0
-6969 6972 0
-6968 -6952 6972 0
-6972 6969 6968 0
-6972 6969 6952 0
-6970 6973 0
-6969 -6952 6973 0
-6973 6970 6969 0
-6973 6970 6952 0
-6971 6974 0
-6953 6974 0
-6974 6971 6953 0
-6972 6975 0
-6971 -6953 6975 0
-6975 6972 6971 0
-6975 6972 6953 0
-6973 6976 0
-6972 -6953 6976 0
-6976 6973 6972 0
-6976 6973 6953 0
-6974 6977 0
-6954 6977 0
-6977 6974 6954 0
-6975 6978 0
-6974 -6954 6978 0
-6978 6975 6974 0
-6978 6975 6954 0
-6976 6979 0
-6975 -6954 6979 0
-6979 6976 6975 0
-6979 6976 6954 0
-6977 6980 0
-6955 6980 0
-6980 6977 6955 0
-6978 6981 0
-6977 -6955 6981 0
-6981 6978 6977 0
-6981 6978 6955 0
-6979 6982 0
-6978 -6955 6982 0
-6982 6979 6978 0
-6982 6979 6955 0
-6980 6983 0
-6956 6983 0
-6983 6980 6956 0
-6981 6984 0
-6980 -6956 6984 0
-6984 6981 6980 0
-6984 6981 6956 0
-6982 6985 0
-6981 -6956 6985 0
-6985 6982 6981 0
-6985 6982 6956 0
-6983 6986 0
-6957 6986 0
-6986 6983 6957 0
-6984 6987 0
-6983 -6957 6987 0
-6987 6984 6983 0
-6987 6984 6957 0
-6985 6988 0
-6984 -6957 6988 0
-6988 6985 6984 0
-6988 6985 6957 0
-6986 6989 0
-6958 6989 0
-6989 6986 6958 0
-6987 6990 0
-6986 -6958 6990 0
-6990 6987 6986 0
-6990 6987 6958 0
-6988 6991 0
-6987 -6958 6991 0
-6991 6988 6987 0
-6991 6988 6958 0
-6989 6992 0
-6959 6992 0
-6992 6989 6959 0
-6990 6993 0
-6989 -6959 6993 0
-6993 6990 6989 0
-6993 6990 6959 0
-6991 6994 0
-6990 -6959 6994 0
-6994 6991 6990 0
-6994 6991 6959 0
-6992 6995 0
-6960 6995 0
-6995 6992 6960 0
-6993 6996 0
-6992 -6960 6996 0
-6996 6993 6992 0
-6996 6993 6960 0
-6994 6997 0
-6993 -6960 6997 0
-6997 6994 6993 0
-6997 6994 6960 0
-6995 6998 0
-6961 6998 0
-6998 6995 6961 0
-6996 6999 0
-6995 -6961 6999 0
-6999 6996 6995 0
-6999 6996 6961 0
-6997 7000 0
-6996 -6961 7000 0
-7000 6997 6996 0
-7000 6997 6961 0
7000 0
-7001 127 0
-7001 183 0
7001 -127 -183 0
-7002 128 0
-7002 184 0
7002 -128 -184 0
-7003 129 0
-7003 185 0
7003 -129 -185 0
-7004 130 0
-7004 186 0
7004 -130 -186 0
-7005 131 0
-7005 187 0
7005 -131 -187 0
-7006 132 0
-7006 188 0
7006 -132 -188 0
-7007 133 0
-7007 189 0
7007 -133 -189 0
-7008 134 0
-7008 190 0
7008 -134 -190 0
-7009 135 0
-7009 191 0
7009 -135 -191 0
-7010 136 0
-7010 192 0
7010 -136 -192 0
-7011 137 0
-7011 193 0
7011 -137 -193 0
-7012 138 0
-7012 194 0
7012 -138 -194 0
-7013 139 0
-7013 195 0
7013 -139 -195 0
-7014 140 0
-7014 196 0
7014 -140 -196 0
-7001 7015 0
-7015 7001 0
-7015 7016 0
-7002 7016 0
-7016 7015 7002 0
-7015 -7002 7017 0
-7017 7015 0
-7017 7002 0
-7016 7018 0
-7003 7018 0
-7018 7016 7003 0
-7017 7019 0
-7016 -7003 7019 0
-7019 7017 7016 0
-7019 7017 7003 0
-7017 -7003 7020 0
-7020 7017 0
-7020 7003 0
-7018 7021 0
-7004 7021 0
-7021 7018 7004 0
-7019 7022 0
-7018 -7004 7022 0
-7022 7019 7018 0
-7022 7019 7004 0
-7020 7023 0
-7019 -7004 7023 0
-7023 7020 7019 0
-7023 7020 7004 0
-7021 7024 0
-7005 7024 0
-7024 7021 7005 0
-7022 7025 0
-7021 -7005 7025 0
-7025 7022 7021 0
-7025 7022 7005 0
-7023 7026 0
-7022 -7005 7026 0
-7026 7023 7022 0
-7026 7023 7005 0
-7024 7027 0
-7006 7027 0
-7027 7024 7006 0
-7025 7028 0
-7024 -7006 7028 0
-7028 7025 7024 0
-7028 7025 7006 0
-7026 7029 0
-7025 -7006 7029 0
-7029 7026 7025 0
-7029 7026 7006 0
-7027 7030 0
-7007 7030 0
-7030 7027 7007 0
-7028 7031 0
-7027 -7007 7031 0
-7031 7028 7027 0
-7031 7028 7007 0
-7029 7032 0
-7028 -7007 7032 0
-7032 7029 7028 0
-7032 7029 7007 0
-7030 7033 0
-7008 7033 0
-7033 7030 7008 0
-7031 7034 0
-7030 -7008 7034 0
-7034 7031 7030 0
-7034 7031 7008 0
-7032 7035 0
-7031 -7008 7035 0
-7035 7032 7031 0
-7035 7032 7008 0
-7033 7036 0
-7009 7036 0
-7036 7033 7009 0
-7034 7037 0
-7033 -7009 7037 0
-7037 7034 7033 0
-7037 7034 7009 0
-7035 7038 0
-7034 -7009 7038 0
-7038 7035 7034 0
-7038 7035 7009 0
-7036 7039 0
-7010 7039 0
-7039 7036 7010 0
-7037 7040 0
-7036 -7010 7040 0
-7040 7037 7036 0
-7040 7037 7010 0
-7038 7041 0
-7037 -7010 7041 0
-7041 7038 7037 0
-7041 7038 7010 0
-7039 7042 0
-7011 7042 0
-7042 7039 7011 0
-7040 7043 0
-7039 -7011 7043 0
-7043 7040 7039 0
-7043 7040 7011 0
-7041 7044 0
-7040 -7011 7044 0
-7044 7041 7040 0
-7044 7041 7011 0
-7042 7045 0
-7012 7045 0
-7045 7042 7012 0
-7043 7046 0
-7042 -7012 7046 0
-7046 7043 7042 0
-7046 7043 7012 0
-7044 7047 0
-7043 -7012 7047 0
-7047 7044 7043 0
-7047 7044 7012 0
-7045 7048 0
-7013 7048 0
-7048 7045 7013 0
-7046 7049 0
-7045 -7013 7049 0
-7049 7046 7045 0
-7049 7046 7013 0
-7047 7050 0
-7046 -7013 7050 0
-7050 7047 7046 0
-7050 7047 7013 0
-7048 7051 0
-7014 7051 0
-7051 7048 7014 0
-7049 7052 0
-7048 -7014 7052 0
-7052 7049 7048 0
-7052 7049 7014 0
-7050 7053 0
-7049 -7014 7053 0
-7053 7050 7049 0
-7053 7050 7014 0
7053 0
-7054 141 0
-7054 155 0
7054 -141 -155 0
-7055 142 0
-7055 156 0
7055 -142 -156 0
-7056 143 0
-7056 157 0
7056 -143 -157 0
-7057 144 0
-7057 158 0
7057 -144 -158 0
-7058 145 0
-7058 159 0
7058 -145 -159 0
-7059 146 0
-7059 160 0
7059 -146 -160 0
-7060 147 0
-7060 161 0
7060 -147 -161 0
-7061 148 0
-7061 162 0
7061 -148 -162 0
-7062 149 0
-7062 163 0
7062 -149 -163 0
-7063 150 0
-7063 164 0
7063 -150 -164 0
-7064 151 0
-7064 165 0
7064 -151 -165 0
-7065 152 0
-7065 166 0
7065 -152 -166 0
-7066 153 0
-7066 167 0
7066 -153 -167 0
-7067 154 0
-7067 168 0
7067 -154 -168 0
-7054 7068 0
-7068 7054 0
-7068 7069 0
-7055 7069 0
-7069 7068 7055 0
-7068 -7055 7070 0
-7070 7068 0
-7070 7055 0
-7069 7071 0
-7056 7071 0
-7071 7069 7056 0
-7070 7072 0
-7069 -7056 7072 0
-7072 7070 7069 0
-7072 7070 7056 0
-7070 -7056 7073 0
-7073 7070 0
-7073 7056 0
-7071 7074 0
-7057 7074 0
-7074 7071 7057 0
-7072 7075 0
-7071 -7057 7075 0
-7075 7072 7071 0
-7075 7072 7057 0
-7073 7076 0
-7072 -7057 7076 0
-7076 7073 7072 0
-7076 7073 7057 0
-7074 7077 0
-7058 7077 0
-7077 7074 7058 0
-7075 7078 0
-7074 -7058 7078 0
-7078 7075 7074 0
-7078 7075 7058 0
-7076 7079 0
-7075 -7058 7079 0
-7079 7076 7075 0
-7079 7076 7058 0
-7077 7080 0
-7059 7080 0
-7080 7077 7059 0
-7078 7081 0
-7077 -7059 7081 0
-7081 7078 7077 0
-7081 7078 7059 0
-7079 7082 0
-7078 -7059 7082 0
-7082 7079 7078 0
-7082 7079 7059 0
-7080 7083 0
-7060 7083 0
-7083 7080 7060 0
-7081 7084 0
-7080 -7060 7084 0
-7084 7081 7080 0
-7084 7081 7060 0
-7082 7085 0
-7081 -7060 7085 0
-7085 7082 7081 0
-7085 7082 7060 0
-7083 7086 0
-7061 7086 0
-7086 7083 7061 0
-7084 7087 0
-7083 -7061 7087 0
-7087 7084 7083 0
-7087 7084 7061 0
-7085 7088 0
-7084 -7061 7088 0
-7088 7085 7084 0
-7088 7085 7061 0
-7086 7089 0
-7062 7089 0
-7089 7086 7062 0
-7087 7090 0
-7086 -7062 7090 0
-7090 7087 7086 0
-7090 7087 7062 0
-7088 7091 0
-7087 -7062 7091 0
-7091 7088 7087 0
-7091 7088 7062 0
-7089 7092 0
-7063 7092 0
-7092 7089 7063 0
-7090 7093 0
-7089 -7063 7093 0
-7093 7090 7089 0
-7093 7090 7063 0
-7091 7094 0
-7090 -7063 7094 0
-7094 7091 7090 0
-7094 7091 7063 0
-7092 7095 0
-7064 7095 0
-7095 7092 7064 0
-7093 7096 0
-7092 -7064 7096 0
-7096 7093 7092 0
-7096 7093 7064 0
-7094 7097 0
-7093 -7064 7097 0
-7097 7094 7093 0
-7097 7094 7064 0
-7095 7098 0
-7065 7098 0
-7098 7095 7065 0
-7096 7099 0
-7095 -7065 7099 0
-7099 7096 7095 0
-7099 7096 7065 0
-7097 7100 0
-7096 -7065 7100 0
-7100 7097 7096 0
-7100 7097 7065 0
-7098 7101 0
-7066 7101 0
-7101 7098 7066 0
-7099 7102 0
-7098 -7066 7102 0
-7102 7099 7098 0
-7102 7099 7066 0
-7100 7103 0
-7099 -7066 7103 0
-7103 7100 7099 0
-7103 7100 7066 0
-7101 7104 0
-7067 7104 0
-7104 7101 7067 0
-7102 7105 0
-7101 -7067 7105 0
-7105 7102 7101 0
-7105 7102 7067 0
-7103 7106 0
-7102 -7067 7106 0
-7106 7103 7102 0
-7106 7103 7067 0
7106 0
-7107 141 0
-7107 169 0
7107 -141 -169 0
-7108 142 0
-7108 170 0
7108 -142 -170 0
-7109 143 0
-7109 171 0
7109 -143 -171 0
-7110 144 0
-7110 172 0
7110 -144 -172 0
-7111 145 0
-7111 173 0
7111 -145 -173 0
-7112 146 0
-7112 174 0
7112 -146 -174 0
-7113 147 0
-7113 175 0
7113 -147 -175 0
-7114 148 0
-7114 176 0
7114 -148 -176 0
-7115 149 0
-7115 177 0
7115 -149 -177 0
-7116 150 0
-7116 178 0
7116 -150 -178 0
-7117 151 0
-7117 179 0
7117 -151 -179 0
-7118 152 0
-7118 180 0
7118 -152 -180 0
-7119 153 0
-7119 181 0
7119 -153 -181 0
-7120 154 0
-7120 182 0
7120 -154 -182 0
-7107 7121 0
-7121 7107 0
-7121 7122 0
-7108 7122 0
-7122 7121 7108 0
-7121 -7108 7123 0
-7123 7121 0
-7123 7108 0
-7122 7124 0
-7109 7124 0
-7124 7122 7109 0
-7123 7125 0
-7122 -7109 7125 0
-7125 7123 7122 0
-7125 7123 7109 0
-7123 -7109 7126 0
-7126 7123 0
-7126 7109 0
-7124 7127 0
-7110 7127 0
-7127 7124 7110 0
-7125 7128 0
-7124 -7110 7128 0
-7128 7125 7124 0
-7128 7125 7110 0
-7126 7129 0
-7125 -7110 7129 0
-7129 7126 7125 0
-7129 7126 7110 0
-7127 7130 0
-7111 7130 0
-7130 7127 7111 0
-7128 7131 0
-7127 -7111 7131 0
-7131 7128 7127 0
-7131 7128 7111 0
-7129 7132 0
-7128 -7111 7132 0
-7132 7129 7128 0
-7132 7129 7111 0
-7130 7133 0
-7112 7133 0
-7133 7130 7112 0
-7131 7134 0
-7130 -7112 7134 0
-7134 7131 7130 0
-7134 7131 7112 0
-7132 7135 0
-7131 -7112 7135 0
-7135 7132 7131 0
-7135 7132 7112 0
-7133 7136 0
-7113 7136 0
-7136 7133 7113 0
-7134 7137 0
-7133 -7113 7137 0
-7137 7134 7133 0
-7137 7134 7113 0
-7135 7138 0
-7134 -7113 7138 0
-7138 7135 7134 0
-7138 7135 7113 0
-7136 7139 0
-7114 7139 0
-7139 7136 7114 0
-7137 7140 0
-7136 -7114 7140 0
-7140 7137 7136 0
-7140 7137 7114 0
-7138 7141 0
-7137 -7114 7141 0
-7141 7138 7137 0
-7141 7138 7114 0
-7139 7142 0
-7115 7142 0
-7142 7139 7115 0
-7140 7143 0
-7139 -7115 7143 0
-7143 7140 7139 0
-7143 7140 7115 0
-7141 7144 0
-7140 -7115 7144 0
-7144 7141 7140 0
-7144 7141 7115 0
-7142 7145 0
-7116 7145 0
-7145 7142 7116 0
-7143 7146 0
-7142 -7116 7146 0
-7146 7143 7142 0
-7146 7143 7116 0
-7144 7147 0
-7143 -7116 7147 0
-7147 7144 7143 0
-7147 7144 7116 0
-7145 7148 0
-7117 7148 0
-7148 7145 7117 0
-7146 7149 0
-7145 -7117 7149 0
-7149 7146 7145 0
-7149 7146 7117 0
-7147 7150 0
-7146 -7117 7150 0
-7150 7147 7146 0
-7150 7147 7117 0
-7148 7151 0
-7118 7151 0
-7151 7148 7118 0
-7149 7152 0
-7148 -7118 7152 0
-7152 7149 7148 0
-7152 7149 7118 0
-7150 7153 0
-7149 -7118 7153 0
-7153 7150 7149 0
-7153 7150 7118 0
-7151 7154 0
-7119 7154 0
-7154 7151 7119 0
-7152 7155 0
-7151 -7119 7155 0
-7155 7152 7151 0
-7155 7152 7119 0
-7153 7156 0
-7152 -7119 7156 0
-7156 7153 7152 0
-7156 7153 7119 0
-7154 7157 0
-7120 7157 0
-7157 7154 7120 0
-7155 7158 0
-7154 -7120 7158 0
-7158 7155 7154 0
-7158 7155 7120 0
-7156 7159 0
-7155 -7120 7159 0
-7159 7156 7155 0
-7159 7156 7120 0
7159 0
-7160 141 0
-7160 183 0
7160 -141 -183 0
-7161 142 0
-7161 184 0
7161 -142 -184 0
-7162 143 0
-7162 185 0
7162 -143 -185 0
-7163 144 0
-7163 186 0
7163 -144 -186 0
-7164 145 0
-7164 187 0
7164 -145 -187 0
-7165 146 0
-7165 188 0
7165 -146 -188 0
-7166 147 0
-7166 189 0
7166 -147 -189 0
-7167 148 0
-7167 190 0
7167 -148 -190 0
-7168 149 0
-7168 191 0
7168 -149 -191 0
-7169 150 0
-7169 192 0
7169 -150 -192 0
-7170 151 0
-7170 193 0
7170 -151 -193 0
-7171 152 0
-7171 194 0
7171 -152 -194 0
-7172 153 0
-7172 195 0
7172 -153 -195 0
-7173 154 0
-7173 196 0
7173 -154 -196 0
-7160 7174 0
-7174 7160 0
-7174 7175 0
-7161 7175 0
-7175 7174 7161 0
-7174 -7161 7176 0
-7176 7174 0
-7176 7161 0
-7175 7177 0
-7162 7177 0
-7177 7175 7162 0
-7176 7178 0
-7175 -7162 7178 0
-7178 7176 7175 0
-7178 7176 7162 0
-7176 -7162 7179 0
-7179 7176 0
-7179 7162 0
-7177 7180 0
-7163 7180 0
-7180 7177 7163 0
-7178 7181 0
-7177 -7163 7181 0
-7181 7178 7177 0
-7181 7178 7163 0
-7179 7182 0
-7178 -7163 7182 0
-7182 7179 7178 0
-7182 7179 7163 0
-7180 7183 0
-7164 7183 0
-7183 7180 7164 0
-7181 7184 0
-7180 -7164 7184 0
-7184 7181 7180 0
-7184 7181 7164 0
-7182 7185 0
-7181 -7164 7185 0
-7185 7182 7181 0
-7185 7182 7164 0
-7183 7186 0
-7165 7186 0
-7186 7183 7165 0
-7184 7187 0
-7183 -7165 7187 0
-7187 7184 7183 0
-7187 7184 7165 0
-7185 7188 0
-7184 -7165 7188 0
-7188 7185 7184 0
-7188 7185 7165 0
-7186 7189 0
-7166 7189 0
-7189 7186 7166 0
-7187 7190 0
-7186 -7166 7190 0
-7190 7187 7186 0
-7190 7187 7166 0
-7188 7191 0
-7187 -7166 7191 0
-7191 7188 7187 0
-7191 7188 7166 0
-7189 7192 0
-7167 7192 0
-7192 7189 7167 0
-7190 7193 0
-7189 -7167 7193 0
-7193 7190 7189 0
-7193 7190 7167 0
-7191 7194 0
-7190 -7167 7194 0
-7194 7191 7190 0
-7194 7191 7167 0
-7192 7195 0
-7168 7195 0
-7195 7192 7168 0
-7193 7196 0
-7192 -7168 7196 0
-7196 7193 7192 0
-7196 7193 7168 0
-7194 7197 0
-7193 -7168 7197 0
-7197 7194 7193 0
-7197 7194 7168 0
-7195 7198 0
-7169 7198 0
-7198 7195 7169 0
-7196 7199 0
-7195 -7169 7199 0
-7199 7196 7195 0
-7199 7196 7169 0
-7197 7200 0
-7196 -7169 7200 0
-7200 7197 7196 0
-7200 7197 7169 0
-7198 7201 0
-7170 7201 0
-7201 7198 7170 0
-7199 7202 0
-7198 -7170 7202 0
-7202 7199 7198 0
-7202 7199 7170 0
-7200 7203 0
-7199 -7170 7203 0
-7203 7200 7199 0
-7203 7200 7170 0
-7201 7204 0
-7171 7204 0
-7204 7201 7171 0
-7202 7205 0
-7201 -7171 7205 0
-7205 7202 7201 0
-7205 7202 7171 0
-7203 7206 0
-7202 -7171 7206 0
-7206 7203 7202 0
-7206 7203 7171 0
-7204 7207 0
-7172 7207 0
-7207 7204 7172 0
-7205 7208 0
-7204 -7172 7208 0
-7208 7205 7204 0
-7208 7205 7172 0
-7206 7209 0
-7205 -7172 7209 0
-7209 7206 7205 0
-7209 7206 7172 0
-7207 7210 0
-7173 7210 0
-7210 7207 7173 0
-7208 7211 0
-7207 -7173 7211 0
-7211 7208 7207 0
-7211 7208 7173 0
-7209 7212 0
-7208 -7173 7212 0
-7212 7209 7208 0
-7212 7209 7173 0
7212 0
-7213 155 0
-7213 169 0
7213 -155 -169 0
-7214 156 0
-7214 170 0
7214 -156 -170 0
-7215 157 0
-7215 171 0
7215 -157 -171 0
-7216 158 0
-7216 172 0
7216 -158 -172 0
-7217 159 0
-7217 173 0
7217 -159 -173 0
-7218 160 0
-7218 174 0
7218 -160 -174 0
-7219 161 0
-7219 175 0
7219 -161 -175 0
-7220 162 0
-7220 176 0
7220 -162 -176 0
-7221 163 0
-7221 177 0
7221 -163 -177 0
-7222 164 0
-7222 178 0
7222 -164 -178 0
-7223 165 0
-7223 179 0
7223 -165 -179 0
-7224 166 0
-7224 180 0
7224 -166 -180 0
-7225 167 0
-7225 181 0
7225 -167 -181 0
-7226 168 0
-7226 182 0
7226 -168 -182 0
-7213 7227 0
-7227 7213 0
-7227 7228 0
-7214 7228 0
-7228 7227 7214 0
-7227 -7214 7229 0
-7229 7227 0
-7229 7214 0
-7228 7230 0
-7215 7230 0
-7230 7228 7215 0
-7229 7231 0
-7228 -7215 7231 0
-7231 7229 7228 0
-7231 7229 7215 0
-7229 -7215 7232 0
-7232 7229 0
-7232 7215 0
-7230 7233 0
-7216 7233 0
-7233 7230 7216 0
-7231 7234 0
-7230 -7216 7234 0
-7234 7231 7230 0
-7234 7231 7216 0
-7232 7235 0
-7231 -7216 7235 0
-7235 7232 7231 0
-7235 7232 7216 0
-7233 7236 0
-7217 7236 0
-7236 7233 7217 0
-7234 7237 0
-7233 -7217 7237 0
-7237 7234 7233 0
-7237 7234 7217 0
-7235 7238 0
-7234 -7217 7238 0
-7238 7235 7234 0
-7238 7235 7217 0
-7236 7239 0
-7218 7239 0
-7239 7236 7218 0
-7237 7240 0
-7236 -7218 7240 0
-7240 7237 7236 0
-7240 7237 7218 0
-7238 7241 0
-7237 -7218 7241 0
-7241 7238 7237 0
-7241 7238 7218 0
-7239 7242 0
-7219 7242 0
-7242 7239 7219 0
-7240 7243 0
-7239 -7219 7243 0
-7243 7240 7239 0
-7243 7240 7219 0
-7241 7244 0
-7240 -7219 7244 0
-7244 7241 7240 0
-7244 7241 7219 0
-7242 7245 0
-7220 7245 0
-7245 7242 7220 0
-7243 7246 0
-7242 -7220 7246 0
-7246 7243 7242 0
-7246 7243 7220 0
-7244 7247 0
-7243 -7220 7247 0
-7247 7244 7243 0
-7247 7244 7220 0
-7245 7248 0
-7221 7248 0
-7248 7245 7221 0
-7246 7249 0
-7245 -7221 7249 0
-7249 7246 7245 0
-7249 7246 7221 0
-7247 7250 0
-7246 -7221 7250 0
-7250 7247 7246 0
-7250 7247 7221 0
-7248 7251 0
-7222 7251 0
-7251 7248 7222 0
-7249 7252 0
-7248 -7222 7252 0
-7252 7249 7248 0
-7252 7249 7222 0
-7250 7253 0
-7249 -7222 7253 0
-7253 7250 7249 0
-7253 7250 7222 0
-7251 7254 0
-7223 7254 0
-7254 7251 7223 0
-7252 7255 0
-7251 -7223 7255 0
-7255 7252 7251 0
-7255 7252 7223 0
-7253 7256 0
-7252 -7223 7256 0
-7256 7253 7252 0
-7256 7253 7223 0
-7254 7257 0
-7224 7257 0
-7257 7254 7224 0
-7255 7258 0
-7254 -7224 7258 0
-7258 7255 7254 0
-7258 7255 7224 0
-7256 7259 0
-7255 -7224 7259 0
-7259 7256 7255 0
-7259 7256 7224 0
-7257 7260 0
-7225 7260 0
-7260 7257 7225 0
-7258 7261 0
-7257 -7225 7261 0
-7261 7258 7257 0
-7261 7258 7225 0
-7259 7262 0
-7258 -7225 7262 0
-7262 7259 7258 0
-7262 7259 7225 0
-7260 7263 0
-7226 7263 0
-7263 7260 7226 0
-7261 7264 0
-7260 -7226 7264 0
-7264 7261 7260 0
-7264 7261 7226 0
-7262 7265 0
-7261 -7226 7265 0
-7265 7262 7261 0
-7265 7262 7226 0
7265 0
-7266 155 0
-7266 183 0
7266 -155 -183 0
-7267 156 0
-7267 184 0
7267 -156 -184 0
-7268 157 0
-7268 185 0
7268 -157 -185 0
-7269 158 0
-7269 186 0
7269 -158 -186 0
-7270 159 0
-7270 187 0
7270 -159 -187 0
-7271 160 0
-7271 188 0
7271 -160 -188 0
-7272 161 0
-7272 189 0
7272 -161 -189 0
-7273 162 0
-7273 190 0
7273 -162 -190 0
-7274 163 0
-7274 191 0
7274 -163 -191 0
-7275 164 0
-7275 192 0
7275 -164 -192 0
-7276 165 0
-7276 193 0
7276 -165 -193 0
-7277 166 0
-7277 194 0
7277 -166 -194 0
-7278 167 0
-7278 195 0
7278 -167 -195 0
-7279 168 0
-7279 196 0
7279 -168 -196 0
-7266 7280 0
-7280 7266 0
-7280 7281 0
-7267 7281 0
-7281 7280 7267 0
-7280 -7267 7282 0
-7282 7280 0
-7282 7267 0
-7281 7283 0
-7268 7283 0
-7283 7281 7268 0
-7282 7284 0
-7281 -7268 7284 0
-7284 7282 7281 0
-7284 7282 7268 0
-7282 -7268 7285 0
-7285 7282 0
-7285 7268 0
-7283 7286 0
-7269 7286 0
-7286 7283 7269 0
-7284 7287 0
-7283 -7269 7287 0
-7287 7284 7283 0
-7287 7284 7269 0
-7285 7288 0
-7284 -7269 7288 0
-7288 7285 7284 0
-7288 7285 7269 0
-7286 7289 0
-7270 7289 0
-7289 7286 7270 0
-7287 7290 0
-7286 -7270 7290 0
-7290 7287 7286 0
-7290 7287 7270 0
-7288 7291 0
-7287 -7270 7291 0
-7291 7288 7287 0
-7291 7288 7270 0
-7289 7292 0
-7271 7292 0
-7292 7289 7271 0
-7290 7293 0
-7289 -7271 7293 0
-7293 7290 7289 0
-7293 7290 7271 0
-7291 7294 0
-7290 -7271 7294 0
-7294 7291 7290 0
-7294 7291 7271 0
-7292 7295 0
-7272 7295 0
-7295 7292 7272 0
-7293 7296 0
-7292 -7272 7296 0
-7296 7293 7292 0
-7296 7293 7272 0
-7294 7297 0
-7293 -7272 7297 0
-7297 7294 7293 0
-7297 7294 7272 0
-7295 7298 0
-7273 7298 0
-7298 7295 7273 0
-7296 7299 0
-7295 -7273 7299 0
-7299 7296 7295 0
-7299 7296 7273 0
-7297 7300 0
-7296 -7273 7300 0
-7300 7297 7296 0
-7300 7297 7273 0
-7298 7301 0
-7274 7301 0
-7301 7298 7274 0
-7299 7302 0
-7298 -7274 7302 0
-7302 7299 7298 0
-7302 7299 7274 0
-7300 7303 0
-7299 -7274 7303 0
-7303 7300 7299 0
-7303 7300 7274 0
-7301 7304 0
-7275 7304 0
-7304 7301 7275 0
-7302 7305 0
-7301 -7275 7305 0
-7305 7302 7301 0
-7305 7302 7275 0
-7303 7306 0
-7302 -7275 7306 0
-7306 7303 7302 0
-7306 7303 7275 0
-7304 7307 0
-7276 7307 0
-7307 7304 7276 0
-7305 7308 0
-7304 -7276 7308 0
-7308 7305 7304 0
-7308 7305 7276 0
-7306 7309 0
-7305 -7276 7309 0
-7309 7306 7305 0
-7309 7306 7276 0
-7307 7310 0
-7277 7310 0
-7310 7307 7277 0
-7308 7311 0
-7307 -7277 7311 0
-7311 7308 7307 0
-7311 7308 7277 0
-7309 7312 0
-7308 -7277 7312 0
-7312 7309 7308 0
-7312 7309 7277 0
-7310 7313 0
-7278 7313 0
-7313 7310 7278 0
-7311 7314 0
-7310 -7278 7314 0
-7314 7311 7310 0
-7314 7311 7278 0
-7312 7315 0
-7311 -7278 7315 0
-7315 7312 7311 0
-7315 7312 7278 0
-7313 7316 0
-7279 7316 0
-7316 7313 7279 0
-7314 7317 0
-7313 -7279 7317 0
-7317 7314 7313 0
-7317 7314 7279 0
-7315 7318 0
-7314 -7279 7318 0
-7318 7315 7314 0
-7318 7315 7279 0
7318 0
-7319 169 0
-7319 183 0
7319 -169 -183 0
-7320 170 0
-7320 184 0
7320 -170 -184 0
-7321 171 0
-7321 185 0
7321 -171 -185 0
-7322 172 0
-7322 186 0
7322 -172 -186 0
-7323 173 0
-7323 187 0
7323 -173 -187 0
-7324 174 0
-7324 188 0
7324 -174 -188 0
-7325 175 0
-7325 189 0
7325 -175 -189 0
-7326 176 0
-7326 190 0
7326 -176 -190 0
-7327 177 0
-7327 191 0
7327 -177 -191 0
-7328 178 0
-7328 192 0
7328 -178 -192 0
-7329 179 0
-7329 193 0
7329 -179 -193 0
-7330 180 0
-7330 194 0
7330 -180 -194 0
-7331 181 0
-7331 195 0
7331 -181 -195 0
-7332 182 0
-7332 196 0
7332 -182 -196 0
-7319 7333 0
-7333 7319 0
-7333 7334 0
-7320 7334 0
-7334 7333 7320 0
-7333 -7320 7335 0
-7335 7333 0
-7335 7320 0
-7334 7336 0
-7321 7336 0
-7336 7334 7321 0
-7335 7337 0
-7334 -7321 7337 0
-7337 7335 7334 0
-7337 7335 7321 0
-7335 -7321 7338 0
-7338 7335 0
-7338 7321 0
-7336 7339 0
-7322 7339 0
-7339 7336 7322 0
-7337 7340 0
-7336 -7322 7340 0
-7340 7337 7336 0
-7340 7337 7322 0
-7338 7341 0
-7337 -7322 7341 0
-7341 7338 7337 0
-7341 7338 7322 0
-7339 7342 0
-7323 7342 0
-7342 7339 7323 0
-7340 7343 0
-7339 -7323 7343 0
-7343 7340 7339 0
-7343 7340 7323 0
-7341 7344 0
-7340 -7323 7344 0
-7344 7341 7340 0
-7344 7341 7323 0
-7342 7345 0
-7324 7345 0
-7345 7342 7324 0
-7343 7346 0
-7342 -7324 7346 0
-7346 7343 7342 0
-7346 7343 7324 0
-7344 7347 0
-7343 -7324 7347 0
-7347 7344 7343 0
-7347 7344 7324 0
-7345 7348 0
-7325 7348 0
-7348 7345 7325 0
-7346 7349 0
-7345 -7325 7349 0
-7349 7346 7345 0
-7349 7346 7325 0
-7347 7350 0
-7346 -7325 7350 0
-7350 7347 7346 0
-7350 7347 7325 0
-7348 7351 0
-7326 7351 0
-7351 7348 7326 0
-7349 7352 0
-7348 -7326 7352 0
-7352 7349 7348 0
-7352 7349 7326 0
-7350 7353 0
-7349 -7326 7353 0
-7353 7350 7349 0
-7353 7350 7326 0
-7351 7354 0
-7327 7354 0
-7354 7351 7327 0
-7352 7355 0
-7351 -7327 7355 0
-7355 7352 7351 0
-7355 7352 7327 0
-7353 7356 0
-7352 -7327 7356 0
-7356 7353 7352 0
-7356 7353 7327 0
-7354 7357 0
-7328 7357 0
-7357 7354 7328 0
-7355 7358 0
-7354 -7328 7358 0
-7358 7355 7354 0
-7358 7355 7328 0
-7356 7359 0
-7355 -7328 7359 0
-7359 7356 7355 0
-7359 7356 7328 0
-7357 7360 0
-7329 7360 0
-7360 7357 7329 0
-7358 7361 0
-7357 -7329 7361 0
-7361 7358 7357 0
-7361 7358 7329 0
-7359 7362 0
-7358 -7329 7362 0
-7362 7359 7358 0
-7362 7359 7329 0
-7360 7363 0
-7330 7363 0
-7363 7360 7330 0
-7361 7364 0
-7360 -7330 7364 0
-7364 7361 7360 0
-7364 7361 7330 0
-7362 7365 0
-7361 -7330 7365 0
-7365 7362 7361 0
-7365 7362 7330 0
-7363 7366 0
-7331 7366 0
-7366 7363 7331 0
-7364 7367 0
-7363 -7331 7367 0
-7367 7364 7363 0
-7367 7364 7331 0
-7365 7368 0
-7364 -7331 7368 0
-7368 7365 7364 0
-7368 7365 7331 0
-7366 7369 0
-7332 7369 0
-7369 7366 7332 0
-7367 7370 0
-7366 -7332 7370 0
-7370 7367 7366 0
-7370 7367 7332 0
-7368 7371 0
-7367 -7332 7371 0
-7371 7368 7367 0
-7371 7368 7332 0
7371 0
-7372 2549 0
-7372 29 0
-7373 2550 0
-7373 30 0
-7374 2551 0
-7374 31 0
-7375 2552 0
-7375 32 0
-7376 2553 0
-7376 33 0
-7377 2554 0
-7377 34 0
-7378 2555 0
-7378 35 0
-7379 2556 0
-7379 36 0
-7380 2557 0
-7380 37 0
-7381 2558 0
-7381 38 0
-7382 2559 0
-7382 39 0
-7383 2560 0
-7383 40 0
-7384 2561 0
-7384 41 0
-7385 2562 0
-7385 42 0
7372 7373 7374 7375 7376 7377 7378 7379 7380 7381 7382 7383 7384 7385 0
-7386 2549 0
-7386 43 0
-7387 2550 0
-7387 44 0
-7388 2551 0
-7388 45 0
-7389 2552 0
-7389 46 0
-7390 2553 0
-7390 47 0
-7391 2554 0
-7391 48 0
-7392 2555 0
-7392 49 0
-7393 2556 0
-7393 50 0
-7394 2557 0
-7394 51 0
-7395 2558 0
-7395 52 0
-7396 2559 0
-7396 53 0
-7397 2560 0
-7397 54 0
-7398 2561 0
-7398 55 0
-7399 2562 0
-7399 56 0
7386 7387 7388 7389 7390 7391 7392 7393 7394 7395 7396 7397 7398 7399 0
-7400 2549 0
-7400 57 0
-7401 2550 0
-7401 58 0
-7402 2551 0
-7402 59 0
-7403 2552 0
-7403 60 0
-7404 2553 0
-7404 61 0
-7405 2554 0
-7405 62 0
-7406 2555 0
-7406 63 0
-7407 2556 0
-7407 64 0
-7408 2557 0
-7408 65 0
-7409 2558 0
-7409 66 0
-7410 2559 0
-7410 67 0
-7411 2560 0
-7411 68 0
-7412 2561 0
-7412 69 0
-7413 2562 0
-7413 70 0
7400 7401 7402 7403 7404 7405 7406 7407 7408 7409 7410 7411 7412 7413 0
-7414 2549 0
-7414 71 0
-7415 2550 0
-7415 72 0
-7416 2551 0
-7416 73 0
-7417 2552 0
-7417 74 0
-7418 2553 0
-7418 75 0
-7419 2554 0
-7419 76 0
-7420 2555 0
-7420 77 0
-7421 2556 0
-7421 78 0
-7422 2557 0
-7422 79 0
-7423 2558 0
-7423 80 0
-7424 2559 0
-7424 81 0
-7425 2560 0
-7425 82 0
-7426 2561 0
-7426 83 0
-7427 2562 0
-7427 84 0
7414 7415 7416 7417 7418 7419 7420 7421 7422 7423 7424 7425 7426 7427 0
-7428 2549 0
-7428 85 0
-7429 2550 0
-7429 86 0
-7430 2551 0
-7430 87 0
-7431 2552 0
-7431 88 0
-7432 2553 0
-7432 89 0
-7433 2554 0
-7433 90 0
-7434 2555 0
-7434 91 0
-7435 2556 0
-7435 92 0
-7436 2557 0
-7436 93 0
-7437 2558 0
-7437 94 0
-7438 2559 0
-7438 95 0
-7439 2560 0
-7439 96 0
-7440 2561 0
-7440 97 0
-7441 2562 0
-7441 98 0
7428 7429 7430 7431 7432 7433 7434 7435 7436 7437 7438 7439 7440 7441 0
-7442 2549 0
-7442 99 0
-7443 2550 0
-7443 100 0
-7444 2551 0
-7444 101 0
-7445 2552 0
-7445 102 0
-7446 2553 0
-7446 103 0
-7447 2554 0
-7447 104 0
-7448 2555 0
-7448 105 0
-7449 2556 0
-7449 106 0
-7450 2557 0
-7450 107 0
-7451 2558 0
-7451 108 0
-7452 2559 0
-7452 109 0
-7453 2560 0
-7453 110 0
-7454 2561 0
-7454 111 0
-7455 2562 0
-7455 112 0
7442 7443 7444 7445 7446 7447 7448 7449 7450 7451 7452 7453 7454 7455 0
-7456 2549 0
-7456 113 0
-7457 2550 0
-7457 114 0
-7458 2551 0
-7458 115 0
-7459 2552 0
-7459 116 0
-7460 2553 0
-7460 117 0
-7461 2554 0
-7461 118 0
-7462 2555 0
-7462 119 0
-7463 2556 0
-7463 120 0
-7464 2557 0
-7464 121 0
-7465 2558 0
-7465 122 0
-7466 2559 0
-7466 123 0
-7467 2560 0
-7467 124 0
-7468 2561 0
-7468 125 0
-7469 2562 0
-7469 126 0
7456 7457 7458 7459 7460 7461 7462 7463 7464 7465 7466 7467 7468 7469 0
-7470 2549 0
-7470 127 0
-7471 2550 0
-7471 128 0
-7472 2551 0
-7472 129 0
-7473 2552 0
-7473 130 0
-7474 2553 0
-7474 131 0
-7475 2554 0
-7475 132 0
-7476 2555 0
-7476 133 0
-7477 2556 0
-7477 134 0
-7478 2557 0
-7478 135 0
-7479 2558 0
-7479 136 0
-7480 2559 0
-7480 137 0
-7481 2560 0
-7481 138 0
-7482 2561 0
-7482 139 0
-7483 2562 0
-7483 140 0
7470 7471 7472 7473 7474 7475 7476 7477 7478 7479 7480 7481 7482 7483 0
-7484 2549 0
-7484 141 0
-7485 2550 0
-7485 142 0
-7486 2551 0
-7486 143 0
-7487 2552 0
-7487 144 0
-7488 2553 0
-7488 145 0
-7489 2554 0
-7489 146 0
-7490 2555 0
-7490 147 0
-7491 2556 0
-7491 148 0
-7492 2557 0
-7492 149 0
-7493 2558 0
-7493 150 0
-7494 2559 0
-7494 151 0
-7495 2560 0
-7495 152 0
-7496 2561 0
-7496 153 0
-7497 2562 0
-7497 154 0
7484 7485 7486 7487 7488 7489 7490 7491 7492 7493 7494 7495 7496 7497 0
-7498 2549 0
-7498 155 0
-7499 2550 0
-7499 156 0
-7500 2551 0
-7500 157 0
-7501 2552 0
-7501 158 0
-7502 2553 0
-7502 159 0
-7503 2554 0
-7503 160 0
-7504 2555 0
-7504 161 0
-7505 2556 0
-7505 162 0
-7506 2557 0
-7506 163 0
-7507 2558 0
-7507 164 0
-7508 2559 0
-7508 165 0
-7509 2560 0
-7509 166 0
-7510 2561 0
-7510 167 0
-7511 2562 0
-7511 168 0
7498 7499 7500 7501 7502 7503 7504 7505 7506 7507 7508 7509 7510 7511 0
-7512 2549 0
-7512 169 0
-7513 2550 0
-7513 170 0
-7514 2551 0
-7514 171 0
-7515 2552 0
-7515 172 0
-7516 2553 0
-7516 173 0
-7517 2554 0
-7517 174 0
-7518 2555 0
-7518 175 0
-7519 2556 0
-7519 176 0
-7520 2557 0
-7520 177 0
-7521 2558 0
-7521 178 0
-7522 2559 0
-7522 179 0
-7523 2560 0
-7523 180 0
-7524 2561 0
-7524 181 0
-7525 2562 0
-7525 182 0
7512 7513 7514 7515 7516 7517 7518 7519 7520 7521 7522 7523 7524 7525 0
-7526 2549 0
-7526 183 0
-7527 2550 0
-7527 184 0
-7528 2551 0
-7528 185 0
-7529 2552 0
-7529 186 0
-7530 2553 0
-7530 187 0
-7531 2554 0
-7531 188 0
-7532 2555 0
-7532 189 0
-7533 2556 0
-7533 190 0
-7534 2557 0
-7534 191 0
-7535 2558 0
-7535 192 0
-7536 2559 0
-7536 193 0
-7537 2560 0
-7537 194 0
-7538 2561 0
-7538 195 0
-7539 2562 0
-7539 196 0
7526 7527 7528 7529 7530 7531 7532 7533 7534 7535 7536 7537 7538 7539 0
-7540 2602 0
-7540 43 0
-7541 2603 0
-7541 44 0
-7542 2604 0
-7542 45 0
-7543 2605 0
-7543 46 0
-7544 2606 0
-7544 47 0
-7545 2607 0
-7545 48 0
-7546 2608 0
-7546 49 0
-7547 2609 0
-7547 50 0
-7548 2610 0
-7548 51 0
-7549 2611 0
-7549 52 0
-7550 2612 0
-7550 53 0
-7551 2613 0
-7551 54 0
-7552 2614 0
-7552 55 0
-7553 2615 0
-7553 56 0
7540 7541 7542 7543 7544 7545 7546 7547 7548 7549 7550 7551 7552 7553 0
-7554 2602 0
-7554 57 0
-7555 2603 0
-7555 58 0
-7556 2604 0
-7556 59 0
-7557 2605 0
-7557 60 0
-7558 2606 0
-7558 61 0
-7559 2607 0
-7559 62 0
-7560 2608 0
-7560 63 0
-7561 2609 0
-7561 64 0
-7562 2610 0
-7562 65 0
-7563 2611 0
-7563 66 0
-7564 2612 0
-7564 67 0
-7565 2613 0
-7565 68 0
-7566 2614 0
-7566 69 0
-7567 2615 0
-7567 70 0
7554 7555 7556 7557 7558 7559 7560 7561 7562 7563 7564 7565 7566 7567 0
-7568 2602 0
-7568 71 0
-7569 2603 0
-7569 72 0
-7570 2604 0
-7570 73 0
-7571 2605 0
-7571 74 0
-7572 2606 0
-7572 75 0
-7573 2607 0
-7573 76 0
-7574 2608 0
-7574 77 0
-7575 2609 0
-7575 78 0
-7576 2610 0
-7576 79 0
-7577 2611 0
-7577 80 0
-7578 2612 0
-7578 81 0
-7579 2613 0
-7579 82 0
-7580 2614 0
-7580 83 0
-7581 2615 0
-7581 84 0
7568 7569 7570 7571 7572 7573 7574 7575 7576 7577 7578 7579 7580 7581 0
-7582 2602 0
-7582 85 0
-7583 2603 0
-7583 86 0
-7584 2604 0
-7584 87 0
-7585 2605 0
-7585 88 0
-7586 2606 0
-7586 89 0
-7587 2607 0
-7587 90 0
-7588 2608 0
-7588 91 0
-7589 2609 0
-7589 92 0
-7590 2610 0
-7590 93 0
-7591 2611 0
-7591 94 0
-7592 2612 0
-7592 95 0
-7593 2613 0
-7593 96 0
-7594 2614 0
-7594 97 0
-7595 2615 0
-7595 98 0
7582 7583 7584 7585 7586 7587 7588 7589 7590 7591 7592 7593 7594 7595 0
-7596 2602 0
-7596 99 0
-7597 2603 0
-7597 100 0
-7598 2604 0
-7598 101 0
-7599 2605 0
-7599 102 0
-7600 2606 0
-7600 103 0
-7601 2607 0
-7601 104 0
-7602 2608 0
-7602 105 0
-7603 2609 0
-7603 106 0
-7604 2610 0
-7604 107 0
-7605 2611 0
-7605 108 0
-7606 2612 0
-7606 109 0
-7607 2613 0
-7607 110 0
-7608 2614 0
-7608 111 0
-7609 2615 0
-7609 112 0
7596 7597 7598 7599 7600 7601 7602 7603 7604 7605 7606 7607 7608 7609 0
-7610 2602 0
-7610 113 0
-7611 2603 0
-7611 114 0
-7612 2604 0
-7612 115 0
-7613 2605 0
-7613 116 0
-7614 2606 0
-7614 117 0
-7615 2607 0
-7615 118 0
-7616 2608 0
-7616 119 0
-7617 2609 0
-7617 120 0
-7618 2610 0
-7618 121 0
-7619 2611 0
-7619 122 0
-7620 2612 0
-7620 123 0
-7621 2613 0
-7621 124 0
-7622 2614 0
-7622 125 0
-7623 2615 0
-7623 126 0
7610 7611 7612 7613 7614 7615 7616 7617 7618 7619 7620 7621 7622 7623 0
-7624 2602 0
-7624 127 0
-7625 2603 0
-7625 128 0
-7626 2604 0
-7626 129 0
-7627 2605 0
-7627 130 0
-7628 2606 0
-7628 131 0
-7629 2607 0
-7629 132 0
-7630 2608 0
-7630 133 0
-7631 2609 0
-7631 134 0
-7632 2610 0
-7632 135 0
-7633 2611 0
-7633 136 0
-7634 2612 0
-7634 137 0
-7635 2613 0
-7635 138 0
-7636 2614 0
-7636 139 0
-7637 2615 0
-7637 140 0
7624 7625 7626 7627 7628 7629 7630 7631 7632 7633 7634 7635 7636 7637 0
-7638 2602 0
-7638 141 0
-7639 2603 0
-7639 142 0
-7640 2604 0
-7640 143 0
-7641 2605 0
-7641 144 0
-7642 2606 0
-7642 145 0
-7643 2607 0
-7643 146 0
-7644 2608 0
-7644 147 0
-7645 2609 0
-7645 148 0
-7646 2610 0
-7646 149 0
-7647 2611 0
-7647 150 0
-7648 2612 0
-7648 151 0
-7649 2613 0
-7649 152 0
-7650 2614 0
-7650 153 0
-7651 2615 0
-7651 154 0
7638 7639 7640 7641 7642 7643 7644 7645 7646 7647 7648 7649 7650 7651 0
-7652 2602 0
-7652 155 0
-7653 2603 0
-7653 156 0
-7654 2604 0
-7654 157 0
-7655 2605 0
-7655 158 0
-7656 2606 0
-7656 159 0
-7657 2607 0
-7657 160 0
-7658 2608 0
-7658 161 0
-7659 2609 0
-7659 162 0
-7660 2610 0
-7660 163 0
-7661 2611 0
-7661 164 0
-7662 2612 0
-7662 165 0
-7663 2613 0
-7663 166 0
-7664 2614 0
-7664 167 0
-7665 2615 0
-7665 168 0
7652 7653 7654 7655 7656 7657 7658 7659 7660 7661 7662 7663 7664 7665 0
-7666 2602 0
-7666 169 0
-7667 2603 0
-7667 170 0
-7668 2604 0
-7668 171 0
-7669 2605 0
-7669 172 0
-7670 2606 0
-7670 173 0
-7671 2607 0
-7671 174 0
-7672 2608 0
-7672 175 0
-7673 2609 0
-7673 176 0
-7674 2610 0
-7674 177 0
-7675 2611 0
-7675 178 0
-7676 2612 0
-7676 179 0
-7677 2613 0
-7677 180 0
-7678 2614 0
-7678 181 0
-7679 2615 0
-7679 182 0
7666 7667 7668 7669 7670 7671 7672 7673 7674 7675 7676 7677 7678 7679 0
-7680 2602 0
-7680 183 0
-7681 2603 0
-7681 184 0
-7682 2604 0
-7682 185 0
-7683 2605 0
-7683 186 0
-7684 2606 0
-7684 187 0
-7685 2607 0
-7685 188 0
-7686 2608 0
-7686 189 0
-7687 2609 0
-7687 190 0
-7688 2610 0
-7688 191 0
-7689 2611 0
-7689 192 0
-7690 2612 0
-7690 193 0
-7691 2613 0
-7691 194 0
-7692 2614 0
-7692 195 0
-7693 2615 0
-7693 196 0
7680 7681 7682 7683 7684 7685 7686 7687 7688 7689 7690 7691 7692 7693 0
-7694 2655 0
-7694 57 0
-7695 2656 0
-7695 58 0
-7696 2657 0
-7696 59 0
-7697 2658 0
-7697 60 0
-7698 2659 0
-7698 61 0
-7699 2660 0
-7699 62 0
-7700 2661 0
-7700 63 0
-7701 2662 0
-7701 64 0
-7702 2663 0
-7702 65 0
-7703 2664 0
-7703 66 0
-7704 2665 0
-7704 67 0
-7705 2666 0
-7705 68 0
-7706 2667 0
-7706 69 0
-7707 2668 0
-7707 70 0
7694 7695 7696 7697 7698 7699 7700 7701 7702 7703 7704 7705 7706 7707 0
-7708 2655 0
-7708 71 0
-7709 2656 0
-7709 72 0
-7710 2657 0
-7710 73 0
-7711 2658 0
-7711 74 0
-7712 2659 0
-7712 75 0
-7713 2660 0
-7713 76 0
-7714 2661 0
-7714 77 0
-7715 2662 0
-7715 78 0
-7716 2663 0
-7716 79 0
-7717 2664 0
-7717 80 0
-7718 2665 0
-7718 81 0
-7719 2666 0
-7719 82 0
-7720 2667 0
-7720 83 0
-7721 2668 0
-7721 84 0
7708 7709 7710 7711 7712 7713 7714 7715 7716 7717 7718 7719 7720 7721 0
-7722 2655 0
-7722 85 0
-7723 2656 0
-7723 86 0
-7724 2657 0
-7724 87 0
-7725 2658 0
-7725 88 0
-7726 2659 0
-7726 89 0
-7727 2660 0
-7727 90 0
-7728 2661 0
-7728 91 0
-7729 2662 0
-7729 92 0
-7730 2663 0
-7730 93 0
-7731 2664 0
-7731 94 0
-7732 2665 0
-7732 95 0
-7733 2666 0
-7733 96 0
-7734 2667 0
-7734 97 0
-7735 2668 0
-7735 98 0
7722 7723 7724 7725 7726 7727 7728 7729 7730 7731 7732 7733 7734 7735 0
-7736 2655 0
-7736 99 0
-7737 2656 0
-7737 100 0
-7738 2657 0
-7738 101 0
-7739 2658 0
-7739 102 0
-7740 2659 0
-7740 103 0
-7741 2660 0
-7741 104 0
-7742 2661 0
-7742 105 0
-7743 2662 0
-7743 106 0
-7744 2663 0
-7744 107 0
-7745 2664 0
-7745 108 0
-7746 2665 0
-7746 109 0
-7747 2666 0
-7747 110 0
-7748 2667 0
-7748 111 0
-7749 2668 0
-7749 112 0
7736 7737 7738 7739 7740 7741 7742 7743 7744 7745 7746 7747 7748 7749 0
-7750 2655 0
-7750 113 0
-7751 2656 0
-7751 114 0
-7752 2657 0
-7752 115 0
-7753 2658 0
-7753 116 0
-7754 2659 0
-7754 117 0
-7755 2660 0
-7755 118 0
-7756 2661 0
-7756 119 0
-7757 2662 0
-7757 120 0
-7758 2663 0
-7758 121 0
-7759 2664 0
-7759 122 0
-7760 2665 0
-7760 123 0
-7761 2666 0
-7761 124 0
-7762 2667 0
-7762 125 0
-7763 2668 0
-7763 126 0
7750 7751 7752 7753 7754 7755 7756 7757 7758 7759 7760 7761 7762 7763 0
-7764 2655 0
-7764 127 0
-7765 2656 0
-7765 128 0
-7766 2657 0
-7766 129 0
-7767 2658 0
-7767 130 0
-7768 2659 0
-7768 131 0
-7769 2660 0
-7769 132 0
-7770 2661 0
-7770 133 0
-7771 2662 0
-7771 134 0
-7772 2663 0
-7772 135 0
-7773 2664 0
-7773 136 0
-7774 2665 0
-7774 137 0
-7775 2666 0
-7775 138 0
-7776 2667 0
-7776 139 0
-7777 2668 0
-7777 140 0
7764 7765 7766 7767 7768 7769 7770 7771 7772 7773 7774 7775 7776 7777 0
-7778 2655 0
-7778 141 0
-7779 2656 0
-7779 142 0
-7780 2657 0
-7780 143 0
-7781 2658 0
-7781 144 0
-7782 2659 0
-7782 145 0
-7783 2660 0
-7783 146 0
-7784 2661 0
-7784 147 0
-7785 2662 0
-7785 148 0
-7786 2663 0
-7786 149 0
-7787 2664 0
-7787 150 0
-7788 2665 0
-7788 151 0
-7789 2666 0
-7789 152 0
-7790 2667 0
-7790 153 0
-7791 2668 0
-7791 154 0
7778 7779 7780 7781 7782 7783 7784 7785 7786 7787 7788 7789 7790 7791 0
-7792 2655 0
-7792 155 0
-7793 2656 0
-7793 156 0
-7794 2657 0
-7794 157 0
-7795 2658 0
-7795 158 0
-7796 2659 0
-7796 159 0
-7797 2660 0
-7797 160 0
-7798 2661 0
-7798 161 0
-7799 2662 0
-7799 162 0
-7800 2663 0
-7800 163 0
-7801 2664 0
-7801 164 0
-7802 2665 0
-7802 165 0
-7803 2666 0
-7803 166 0
-7804 2667 0
-7804 167 0
-7805 2668 0
-7805 168 0
7792 7793 7794 7795 7796 7797 7798 7799 7800 7801 7802 7803 7804 7805 0
-7806 2655 0
-7806 169 0
-7807 2656 0
-7807 170 0
-7808 2657 0
-7808 171 0
-7809 2658 0
-7809 172 0
-7810 2659 0
-7810 173 0
-7811 2660 0
-7811 174 0
-7812 2661 0
-7812 175 0
-7813 2662 0
-7813 176 0
-7814 2663 0
-7814 177 0
-7815 2664 0
-7815 178 0
-7816 2665 0
-7816 179 0
-7817 2666 0
-7817 180 0
-7818 2667 0
-7818 181 0
-7819 2668 0
-7819 182 0
7806 7807 7808 7809 7810 7811 7812 7813 7814 7815 7816 7817 7818 7819 0
-7820 2655 0
-7820 183 0
-7821 2656 0
-7821 184 0
-7822 2657 0
-7822 185 0
-7823 2658 0
-7823 186 0
-7824 2659 0
-7824 187 0
-7825 2660 0
-7825 188 0
-7826 2661 0
-7826 189 0
-7827 2662 0
-7827 190 0
-7828 2663 0
-7828 191 0
-7829 2664 0
-7829 192 0
-7830 2665 0
-7830 193 0
-7831 2666 0
-7831 194 0
-7832 2667 0
-7832 195 0
-7833 2668 0
-7833 196 0
7820 7821 7822 7823 7824 7825 7826 7827 7828 7829 7830 7831 7832 7833 0
-7834 2708 0
-7834 71 0
-7835 2709 0
-7835 72 0
-7836 2710 0
-7836 73 0
-7837 2711 0
-7837 74 0
-7838 2712 0
-7838 75 0
-7839 2713 0
-7839 76 0
-7840 2714 0
-7840 77 0
-7841 2715 0
-7841 78 0
-7842 2716 0
-7842 79 0
-7843 2717 0
-7843 80 0
-7844 2718 0
-7844 81 0
-7845 2719 0
-7845 82 0
-7846 2720 0
-7846 83 0
-7847 2721 0
-7847 84 0
7834 7835 7836 7837 7838 7839 7840 7841 7842 7843 7844 7845 7846 7847 0
-7848 2708 0
-7848 85 0
-7849 2709 0
-7849 86 0
-7850 2710 0
-7850 87 0
-7851 2711 0
-7851 88 0
-7852 2712 0
-7852 89 0
-7853 2713 0
-7853 90 0
-7854 2714 0
-7854 91 0
-7855 2715 0
-7855 92 0
-7856 2716 0
-7856 93 0
-7857 2717 0
-7857 94 0
-7858 2718 0
-7858 95 0
-7859 2719 0
-7859 96 0
-7860 2720 0
-7860 97 0
-7861 2721 0
-7861 98 0
7848 7849 7850 7851 7852 7853 7854 7855 7856 7857 7858 7859 7860 7861 0
-7862 2708 0
-7862 99 0
-7863 2709 0
-7863 100 0
-7864 2710 0
-7864 101 0
-7865 2711 0
-7865 102 0
-7866 2712 0
-7866 103 0
-7867 2713 0
-7867 104 0
-7868 2714 0
-7868 105 0
-7869 2715 0
-7869 106 0
-7870 2716 0
-7870 107 0
-7871 2717 0
-7871 108 0
-7872 2718 0
-7872 109 0
-7873 2719 0
-7873 110 0
-7874 2720 0
-7874 111 0
-7875 2721 0
-7875 112 0
7862 7863 7864 7865 7866 7867 7868 7869 7870 7871 7872 7873 7874 7875 0
-7876 2708 0
-7876 113 0
-7877 2709 0
-7877 114 0
-7878 2710 0
-7878 115 0
-7879 2711 0
-7879 116 0
-7880 2712 0
-7880 117 0
-7881 2713 0
-7881 118 0
-7882 2714 0
-7882 119 0
-7883 2715 0
-7883 120 0
-7884 2716 0
-7884 121 0
-7885 2717 0
-7885 122 0
-7886 2718 0
-7886 123 0
-7887 2719 0
-7887 124 0
-7888 2720 0
-7888 125 0
-7889 2721 0
-7889 126 0
7876 7877 7878 7879 7880 7881 7882 7883 7884 7885 7886 7887 7888 7889 0
-7890 2708 0
-7890 127 0
-7891 2709 0
-7891 128 0
-7892 2710 0
-7892 129 0
-7893 2711 0
-7893 130 0
-7894 2712 0
-7894 131 0
-7895 2713 0
-7895 132 0
-7896 2714 0
-7896 133 0
-7897 2715 0
-7897 134 0
-7898 2716 0
-7898 135 0
-7899 2717 0
-7899 136 0
-7900 2718 0
-7900 137 0
-7901 2719 0
-7901 138 0
-7902 2720 0
-7902 139 0
-7903 2721 0
-7903 140 0
7890 7891 7892 7893 7894 7895 7896 7897 7898 7899 7900 7901 7902 7903 0
-7904 2708 0
-7904 141 0
-7905 2709 0
-7905 142 0
-7906 2710 0
-7906 143 0
-7907 2711 0
-7907 144 0
-7908 2712 0
-7908 145 0
-7909 2713 0
-7909 146 0
-7910 2714 0
-7910 147 0
-7911 2715 0
-7911 148 0
-7912 2716 0
-7912 149 0
-7913 2717 0
-7913 150 0
-7914 2718 0
-7914 151 0
-7915 2719 0
-7915 152 0
-7916 2720 0
-7916 153 0
-7917 2721 0
-7917 154 0
7904 7905 7906 7907 7908 7909 7910 7911 7912 7913 7914 7915 7916 7917 0
-7918 2708 0
-7918 155 0
-7919 2709 0
-7919 156 0
-7920 2710 0
-7920 157 0
-7921 2711 0
-7921 158 0
-7922 2712 0
-7922 159 0
-7923 2713 0
-7923 160 0
-7924 2714 0
-7924 161 0
-7925 2715 0
-7925 162 0
-7926 2716 0
-7926 163 0
-7927 2717 0
-7927 164 0
-7928 2718 0
-7928 165 0
-7929 2719 0
-7929 166 0
-7930 2720 0
-7930 167 0
-7931 2721 0
-7931 168 0
7918 7919 7920 7921 7922 7923 7924 7925 7926 7927 7928 7929 7930 7931 0
-7932 2708 0
-7932 169 0
-7933 2709 0
-7933 170 0
-7934 2710 0
-7934 171 0
-7935 2711 0
-7935 172 0
-7936 2712 0
-7936 173 0
-7937 2713 0
-7937 174 0
-7938 2714 0
-7938 175 0
-7939 2715 0
-7939 176 0
-7940 2716 0
-7940 177 0
-7941 2717 0
-7941 178 0
-7942 2718 0
-7942 179 0
-7943 2719 0
-7943 180 0
-7944 2720 0
-7944 181 0
-7945 2721 0
-7945 182 0
7932 7933 7934 7935 7936 7937 7938 7939 7940 7941 7942 7943 7944 7945 0
-7946 2708 0
-7946 183 0
-7947 2709 0
-7947 184 0
-7948 2710 0
-7948 185 0
-7949 2711 0
-7949 186 0
-7950 2712 0
-7950 187 0
-7951 2713 0
-7951 188 0
-7952 2714 0
-7952 189 0
-7953 2715 0
-7953 190 0
-7954 2716 0
-7954 191 0
-7955 2717 0
-7955 192 0
-7956 2718 0
-7956 193 0
-7957 2719 0
-7957 194 0
-7958 2720 0
-7958 195 0
-7959 2721 0
-7959 196 0
7946 7947 7948 7949 7950 7951 7952 7953 7954 7955 7956 7957 7958 7959 0
-7960 2761 0
-7960 85 0
-7961 2762 0
-7961 86 0
-7962 2763 0
-7962 87 0
-7963 2764 0
-7963 88 0
-7964 2765 0
-7964 89 0
-7965 2766 0
-7965 90 0
-7966 2767 0
-7966 91 0
-7967 2768 0
-7967 92 0
-7968 2769 0
-7968 93 0
-7969 2770 0
-7969 94 0
-7970 2771 0
-7970 95 0
-7971 2772 0
-7971 96 0
-7972 2773 0
-7972 97 0
-7973 2774 0
-7973 98 0
7960 7961 7962 7963 7964 7965 7966 7967 7968 7969 7970 7971 7972 7973 0
-7974 2761 0
-7974 99 0
-7975 2762 0
-7975 100 0
-7976 2763 0
-7976 101 0
-7977 2764 0
-7977 102 0
-7978 2765 0
-7978 103 0
-7979 2766 0
-7979 104 0
-7980 2767 0
-7980 105 0
-7981 2768 0
-7981 106 0
-7982 2769 0
-7982 107 0
-7983 2770 0
-7983 108 0
-7984 2771 0
-7984 109 0
-7985 2772 0
-7985 110 0
-7986 2773 0
-7986 111 0
-7987 2774 0
-7987 112 0
7974 7975 7976 7977 7978 7979 7980 7981 7982 7983 7984 7985 7986 7987 0
-7988 2761 0
-7988 113 0
-7989 2762 0
-7989 114 0
-7990 2763 0
-7990 115 0
-7991 2764 0
-7991 116 0
-7992 2765 0
-7992 117 0
-7993 2766 0
-7993 118 0
-7994 2767 0
-7994 119 0
-7995 2768 0
-7995 120 0
-7996 2769 0
-7996 121 0
-7997 2770 0
-7997 122 0
-7998 2771 0
-7998 123 0
-7999 2772 0
-7999 124 0
-8000 2773 0
-8000 125 0
-8001 2774 0
-8001 126 0
7988 7989 7990 7991 7992 7993 7994 7995 7996 7997 7998 7999 8000 8001 0
-8002 2761 0
-8002 127 0
-8003 2762 0
-8003 128 0
-8004 2763 0
-8004 129 0
-8005 2764 0
-8005 130 0
-8006 2765 0
-8006 131 0
-8007 2766 0
-8007 132 0
-8008 2767 0
-8008 133 0
-8009 2768 0
-8009 134 0
-8010 2769 0
-8010 135 0
-8011 2770 0
-8011 136 0
-8012 2771 0
-8012 137 0
-8013 2772 0
-8013 138 0
-8014 2773 0
-8014 139 0
-8015 2774 0
-8015 140 0
8002 8003 8004 8005 8006 8007 8008 8009 8010 8011 8012 8013 8014 8015 0
-8016 2761 0
-8016 141 0
-8017 2762 0
-8017 142 0
-8018 2763 0
-8018 143 0
-8019 2764 0
-8019 144 0
-8020 2765 0
-8020 145 0
-8021 2766 0
-8021 146 0
-8022 2767 0
-8022 147 0
-8023 2768 0
-8023 148 0
-8024 2769 0
-8024 149 0
-8025 2770 0
-8025 150 0
-8026 2771 0
-8026 151 0
-8027 2772 0
-8027 152 0
-8028 2773 0
-8028 153 0
-8029 2774 0
-8029 154 0
8016 8017 8018 8019 8020 8021 8022 8023 8024 8025 8026 8027 8028 8029 0
-8030 2761 0
-8030 155 0
-8031 2762 0
-8031 156 0
-8032 2763 0
-8032 157 0
-8033 2764 0
-8033 158 0
-8034 2765 0
-8034 159 0
-8035 2766 0
-8035 160 0
-8036 2767 0
-8036 161 0
-8037 2768 0
-8037 162 0
-8038 2769 0
-8038 163 0
-8039 2770 0
-8039 164 0
-8040 2771 0
-8040 165 0
-8041 2772 0
-8041 166 0
-8042 2773 0
-8042 167 0
-8043 2774 0
-8043 168 0
8030 8031 8032 8033 8034 8035 8036 8037 8038 8039 8040 8041 8042 8043 0
-8044 2761 0
-8044 169 0
-8045 2762 0
-8045 170 0
-8046 2763 0
-8046 171 0
-8047 2764 0
-8047 172 0
-8048 2765 0
-8048 173 0
-8049 2766 0
-8049 174 0
-8050 2767 0
-8050 175 0
-8051 2768 0
-8051 176 0
-8052 2769 0
-8052 177 0
-8053 2770 0
-8053 178 0
-8054 2771 0
-8054 179 0
-8055 2772 0
-8055 180 0
-8056 2773 0
-8056 181 0
-8057 2774 0
-8057 182 0
8044 8045 8046 8047 8048 8049 8050 8051 8052 8053 8054 8055 8056 8057 0
-8058 2761 0
-8058 183 0
-8059 2762 0
-8059 184 0
-8060 2763 0
-8060 185 0
-8061 2764 0
-8061 186 0
-8062 2765 0
-8062 187 0
-8063 2766 0
-8063 188 0
-8064 2767 0
-8064 189 0
-8065 2768 0
-8065 190 0
-8066 2769 0
-8066 191 0
-8067 2770 0
-8067 192 0
-8068 2771 0
-8068 193 0
-8069 2772 0
-8069 194 0
-8070 2773 0
-8070 195 0
-8071 2774 0
-8071 196 0
8058 8059 8060 8061 8062 8063 8064 8065 8066 8067 8068 8069 8070 8071 0
-8072 2814 0
-8072 99 0
-8073 2815 0
-8073 100 0
-8074 2816 0
-8074 101 0
-8075 2817 0
-8075 102 0
-8076 2818 0
-8076 103 0
-8077 2819 0
-8077 104 0
-8078 2820 0
-8078 105 0
-8079 2821 0
-8079 106 0
-8080 2822 0
-8080 107 0
-8081 2823 0
-8081 108 0
-8082 2824 0
-8082 109 0
-8083 2825 0
-8083 110 0
-8084 2826 0
-8084 111 0
-8085 2827 0
-8085 112 0
8072 8073 8074 8075 8076 8077 8078 8079 8080 8081 8082 8083 8084 8085 0
-8086 2814 0
-8086 113 0
-8087 2815 0
-8087 114 0
-8088 2816 0
-8088 115 0
-8089 2817 0
-8089 116 0
-8090 2818 0
-8090 117 0
-8091 2819 0
-8091 118 0
-8092 2820 0
-8092 119 0
-8093 2821 0
-8093 120 0
-8094 2822 0
-8094 121 0
-8095 2823 0
-8095 122 0
-8096 2824 0
-8096 123 0
-8097 2825 0
-8097 124 0
-8098 2826 0
-8098 125 0
-8099 2827 0
-8099 126 0
8086 8087 8088 8089 8090 8091 8092 8093 8094 8095 8096 8097 8098 8099 0
-8100 2814 0
-8100 127 0
-8101 2815 0
-8101 128 0
-8102 2816 0
-8102 129 0
-8103 2817 0
-8103 130 0
-8104 2818 0
-8104 131 0
-8105 2819 0
-8105 132 0
-8106 2820 0
-8106 133 0
-8107 2821 0
-8107 134 0
-8108 2822 0
-8108 135 0
-8109 2823 0
-8109 136 0
-8110 2824 0
-8110 137 0
-8111 2825 0
-8111 138 0
-8112 2826 0
-8112 139 0
-8113 2827 0
-8113 140 0
8100 8101 8102 8103 8104 8105 8106 8107 8108 8109 8110 8111 8112 8113 0
-8114 2814 0
-8114 141 0
-8115 2815 0
-8115 142 0
-8116 2816 0
-8116 143 0
-8117 2817 0
-8117 144 0
-8118 2818 0
-8118 145 0
-8119 2819 0
-8119 146 0
-8120 2820 0
-8120 147 0
-8121 2821 0
-8121 148 0
-8122 2822 0
-8122 149 0
-8123 2823 0
-8123 150 0
-8124 2824 0
-8124 151 0
-8125 2825 0
-8125 152 0
-8126 2826 0
-8126 153 0
-8127 2827 0
-8127 154 0
8114 8115 8116 8117 8118 8119 8120 8121 8122 8123 8124 8125 8126 8127 0
-8128 2814 0
-8128 155 0
-8129 2815 0
-8129 156 0
-8130 2816 0
-8130 157 0
-8131 2817 0
-8131 158 0
-8132 2818 0
-8132 159 0
-8133 2819 0
-8133 160 0
-8134 2820 0
-8134 161 0
-8135 2821 0
-8135 162 0
-8136 2822 0
-8136 163 0
-8137 2823 0
-8137 164 0
-8138 2824 0
-8138 165 0
-8139 2825 0
-8139 166 0
-8140 2826 0
-8140 167 0
-8141 2827 0
-8141 168 0
8128 8129 8130 8131 8132 8133 8134 8135 8136 8137 8138 8139 8140 8141 0
-8142 2814 0
-8142 169 0
-8143 2815 0
-8143 170 0
-8144 2816 0
-8144 171 0
-8145 2817 0
-8145 172 0
-8146 2818 0
-8146 173 0
-8147 2819 0
-8147 174 0
-8148 2820 0
-8148 175 0
-8149 2821 0
-8149 176 0
-8150 2822 0
-8150 177 0
-8151 2823 0
-8151 178 0
-8152 2824 0
-8152 179 0
-8153 2825 0
-8153 180 0
-8154 2826 0
-8154 181 0
-8155 2827 0
-8155 182 0
8142 8143 8144 8145 8146 8147 8148 8149 8150 8151 8152 8153 8154 8155 0
-8156 2814 0
-8156 183 0
-8157 2815 0
-8157 184 0
-8158 2816 0
-8158 185 0
-8159 2817 0
-8159 186 0
-8160 2818 0
-8160 187 0
-8161 2819 0
-8161 188 0
-8162 2820 0
-8162 189 0
-8163 2821 0
-8163 190 0
-8164 2822 0
-8164 191 0
-8165 2823 0
-8165 192 0
-8166 2824 0
-8166 193 0
-8167 2825 0
-8167 194 0
-8168 2826 0
-8168 195 0
-8169 2827 0
-8169 196 0
8156 8157 8158 8159 8160 8161 8162 8163 8164 8165 8166 8167 8168 8169 0
-8170 2867 0
-8170 113 0
-8171 2868 0
-8171 114 0
-8172 2869 0
-8172 115 0
-8173 2870 0
-8173 116 0
-8174 2871 0
-8174 117 0
-8175 2872 0
-8175 118 0
-8176 2873 0
-8176 119 0
-8177 2874 0
-8177 120 0
-8178 2875 0
-8178 121 0
-8179 2876 0
-8179 122 0
-8180 2877 0
-8180 123 0
-8181 2878 0
-8181 124 0
-8182 2879 0
-8182 125 0
-8183 2880 0
-8183 126 0
8170 8171 8172 8173 8174 8175 8176 8177 8178 8179 8180 8181 8182 8183 0
-8184 2867 0
-8184 127 0
-8185 2868 0
-8185 128 0
-8186 2869 0
-8186 129 0
-8187 2870 0
-8187 130 0
-8188 2871 0
-8188 131 0
-8189 2872 0
-8189 132 0
-8190 2873 0
-8190 133 0
-8191 2874 0
-8191 134 0
-8192 2875 0
-8192 135 0
-8193 2876 0
-8193 136 0
-8194 2877 0
-8194 137 0
-8195 2878 0
-8195 138 0
-8196 2879 0
-8196 139 0
-8197 2880 0
-8197 140 0
8184 8185 8186 8187 8188 8189 8190 8191 8192 8193 8194 8195 8196 8197 0
-8198 2867 0
-8198 141 0
-8199 2868 0
-8199 142 0
-8200 2869 0
-8200 143 0
-8201 2870 0
-8201 144 0
-8202 2871 0
-8202 145 0
-8203 2872 0
-8203 146 0
-8204 2873 0
-8204 147 0
-8205 2874 0
-8205 148 0
-8206 2875 0
-8206 149 0
-8207 2876 0
-8207 150 0
-8208 2877 0
-8208 151 0
-8209 2878 0
-8209 152 0
-8210 2879 0
-8210 153 0
-8211 2880 0
-8211 154 0
8198 8199 8200 8201 8202 8203 8204 8205 8206 8207 8208 8209 8210 8211 0
-8212 2867 0
-8212 155 0
-8213 2868 0
-8213 156 0
-8214 2869 0
-8214 157 0
-8215 2870 0
-8215 158 0
-8216 2871 0
-8216 159 0
-8217 2872 0
-8217 160 0
-8218 2873 0
-8218 161 0
-8219 2874 0
-8219 162 0
-8220 2875 0
-8220 163 0
-8221 2876 0
-8221 164 0
-8222 2877 0
-8222 165 0
-8223 2878 0
-8223 166 0
-8224 2879 0
-8224 167 0
-8225 2880 0
-8225 168 0
8212 8213 8214 8215 8216 8217 8218 8219 8220 8221 8222 8223 8224 8225 0
-8226 2867 0
-8226 169 0
-8227 2868 0
-8227 170 0
-8228 2869 0
-8228 171 0
-8229 2870 0
-8229 172 0
-8230 2871 0
-8230 173 0
-8231 2872 0
-8231 174 0
-8232 2873 0
-8232 175 0
-8233 2874 0
-8233 176 0
-8234 2875 0
-8234 177 0
-8235 2876 0
-8235 178 0
-8236 2877 0
-8236 179 0
-8237 2878 0
-8237 180 0
-8238 2879 0
-8238 181 0
-8239 2880 0
-8239 182 0
8226 8227 8228 8229 8230 8231 8232 8233 8234 8235 8236 8237 8238 8239 0
-8240 2867 0
-8240 183 0
-8241 2868 0
-8241 184 0
-8242 2869 0
-8242 185 0
-8243 2870 0
-8243 186 0
-8244 2871 0
-8244 187 0
-8245 2872 0
-8245 188 0
-8246 2873 0
-8246 189 0
-8247 2874 0
-8247 190 0
-8248 2875 0
-8248 191 0
-8249 2876 0
-8249 192 0
-8250 2877 0
-8250 193 0
-8251 2878 0
-8251 194 0
-8252 2879 0
-8252 195 0
-8253 2880 0
-8253 196 0
8240 8241 8242 8243 8244 8245 8246 8247 8248 8249 8250 8251 8252 8253 0
-8254 2920 0
-8254 127 0
-8255 2921 0
-8255 128 0
-8256 2922 0
-8256 129 0
-8257 2923 0
-8257 130 0
-8258 2924 0
-8258 131 0
-8259 2925 0
-8259 132 0
-8260 2926 0
-8260 133 0
-8261 2927 0
-8261 134 0
-8262 2928 0
-8262 135 0
-8263 2929 0
-8263 136 0
-8264 2930 0
-8264 137 0
-8265 2931 0
-8265 138 0
-8266 2932 0
-8266 139 0
-8267 2933 0
-8267 140 0
8254 8255 8256 8257 8258 8259 8260 8261 8262 8263 8264 8265 8266 8267 0
-8268 2920 0
-8268 141 0
-8269 2921 0
-8269 142 0
-8270 2922 0
-8270 143 0
-8271 2923 0
-8271 144 0
-8272 2924 0
-8272 145 0
-8273 2925 0
-8273 146 0
-8274 2926 0
-8274 147 0
-8275 2927 0
-8275 148 0
-8276 2928 0
-8276 149 0
-8277 2929 0
-8277 150 0
-8278 2930 0
-8278 151 0
-8279 2931 0
-8279 152 0
-8280 2932 0
-8280 153 0
-8281 2933 0
-8281 154 0
8268 8269 8270 8271 8272 8273 8274 8275 8276 8277 8278 8279 8280 8281 0
-8282 2920 0
-8282 155 0
-8283 2921 0
-8283 156 0
-8284 2922 0
-8284 157 0
-8285 2923 0
-8285 158 0
-8286 2924 0
-8286 159 0
-8287 2925 0
-8287 160 0
-8288 2926 0
-8288 161 0
-8289 2927 0
-8289 162 0
-8290 2928 0
-8290 163 0
-8291 2929 0
-8291 164 0
-8292 2930 0
-8292 165 0
-8293 2931 0
-8293 166 0
-8294 2932 0
-8294 167 0
-8295 2933 0
-8295 168 0
8282 8283 8284 8285 8286 8287 8288 8289 8290 8291 8292 8293 8294 8295 0
-8296 2920 0
-8296 169 0
-8297 2921 0
-8297 170 0
-8298 2922 0
-8298 171 0
-8299 2923 0
-8299 172 0
-8300 2924 0
-8300 173 0
-8301 2925 0
-8301 174 0
-8302 2926 0
-8302 175 0
-8303 2927 0
-8303 176 0
-8304 2928 0
-8304 177 0
-8305 2929 0
-8305 178 0
-8306 2930 0
-8306 179 0
-8307 2931 0
-8307 180 0
-8308 2932 0
-8308 181 0
-8309 2933 0
-8309 182 0
8296 8297 8298 8299 8300 8301 8302 8303 8304 8305 8306 8307 8308 8309 0
-8310 2920 0
-8310 183 0
-8311 2921 0
-8311 184 0
-8312 2922 0
-8312 185 0
-8313 2923 0
-8313 186 0
-8314 2924 0
-8314 187 0
-8315 2925 0
-8315 188 0
-8316 2926 0
-8316 189 0
-8317 2927 0
-8317 190 0
-8318 2928 0
-8318 191 0
-8319 2929 0
-8319 192 0
-8320 2930 0
-8320 193 0
-8321 2931 0
-8321 194 0
-8322 2932 0
-8322 195 0
-8323 2933 0
-8323 196 0
8310 8311 8312 8313 8314 8315 8316 8317 8318 8319 8320 8321 8322 8323 0
-8324 2973 0
-8324 141 0
-8325 2974 0
-8325 142 0
-8326 2975 0
-8326 143 0
-8327 2976 0
-8327 144 0
-8328 2977 0
-8328 145 0
-8329 2978 0
-8329 146 0
-8330 2979 0
-8330 147 0
-8331 2980 0
-8331 148 0
-8332 2981 0
-8332 149 0
-8333 2982 0
-8333 150 0
-8334 2983 0
-8334 151 0
-8335 2984 0
-8335 152 0
-8336 2985 0
-8336 153 0
-8337 2986 0
-8337 154 0
8324 8325 8326 8327 8328 8329 8330 8331 8332 8333 8334 8335 8336 8337 0
-8338 2973 0
-8338 155 0
-8339 2974 0
-8339 156 0
-8340 2975 0
-8340 157 0
-8341 2976 0
-8341 158 0
-8342 2977 0
-8342 159 0
-8343 2978 0
-8343 160 0
-8344 2979 0
-8344 161 0
-8345 2980 0
-8345 162 0
-8346 2981 0
-8346 163 0
-8347 2982 0
-8347 164 0
-8348 2983 0
-8348 165 0
-8349 2984 0
-8349 166 0
-8350 2985 0
-8350 167 0
-8351 2986 0
-8351 168 0
8338 8339 8340 8341 8342 8343 8344 8345 8346 8347 8348 8349 8350 8351 0
-8352 2973 0
-8352 169 0
-8353 2974 0
-8353 170 0
-8354 2975 0
-8354 171 0
-8355 2976 0
-8355 172 0
-8356 2977 0
-8356 173 0
-8357 2978 0
-8357 174 0
-8358 2979 0
-8358 175 0
-8359 2980 0
-8359 176 0
-8360 2981 0
-8360 177 0
-8361 2982 0
-8361 178 0
-8362 2983 0
-8362 179 0
-8363 2984 0
-8363 180 0
-8364 2985 0
-8364 181 0
-8365 2986 0
-8365 182 0
8352 8353 8354 8355 8356 8357 8358 8359 8360 8361 8362 8363 8364 8365 0
-8366 2973 0
-8366 183 0
-8367 2974 0
-8367 184 0
-8368 2975 0
-8368 185 0
-8369 2976 0
-8369 186 0
-8370 2977 0
-8370 187 0
-8371 2978 0
-8371 188 0
-8372 2979 0
-8372 189 0
-8373 2980 0
-8373 190 0
-8374 2981 0
-8374 191 0
-8375 2982 0
-8375 192 0
-8376 2983 0
-8376 193 0
-8377 2984 0
-8377 194 0
-8378 2985 0
-8378 195 0
-8379 2986 0
-8379 196 0
8366 8367 8368 8369 8370 8371 8372 8373 8374 8375 8376 8377 8378 8379 0
-8380 3026 0
-8380 155 0
-8381 3027 0
-8381 156 0
-8382 3028 0
-8382 157 0
-8383 3029 0
-8383 158 0
-8384 3030 0
-8384 159 0
-8385 3031 0
-8385 160 0
-8386 3032 0
-8386 161 0
-8387 3033 0
-8387 162 0
-8388 3034 0
-8388 163 0
-8389 3035 0
-8389 164 0
-8390 3036 0
-8390 165 0
-8391 3037 0
-8391 166 0
-8392 3038 0
-8392 167 0
-8393 3039 0
-8393 168 0
8380 8381 8382 8383 8384 8385 8386 8387 8388 8389 8390 8391 8392 8393 0
-8394 3026 0
-8394 169 0
-8395 3027 0
-8395 170 0
-8396 3028 0
-8396 171 0
-8397 3029 0
-8397 172 0
-8398 3030 0
-8398 173 0
-8399 3031 0
-8399 174 0
-8400 3032 0
-8400 175 0
-8401 3033 0
-8401 176 0
-8402 3034 0
-8402 177 0
-8403 3035 0
-8403 178 0
-8404 3036 0
-8404 179 0
-8405 3037 0
-8405 180 0
-8406 3038 0
-8406 181 0
-8407 3039 0
-8407 182 0
8394 8395 8396 8397 8398 8399 8400 8401 8402 8403 8404 8405 8406 8407 0
-8408 3026 0
-8408 183 0
-8409 3027 0
-8409 184 0
-8410 3028 0
-8410 185 0
-8411 3029 0
-8411 186 0
-8412 3030 0
-8412 187 0
-8413 3031 0
-8413 188 0
-8414 3032 0
-8414 189 0
-8415 3033 0
-8415 190 0
-8416 3034 0
-8416 191 0
-8417 3035 0
-8417 192 0
-8418 3036 0
-8418 193 0
-8419 3037 0
-8419 194 0
-8420 3038 0
-8420 195 0
-8421 3039 0
-8421 196 0
8408 8409 8410 8411 8412 8413 8414 8415 8416 8417 8418 8419 8420 8421 0
-8422 3079 0
-8422 169 0
-8423 3080 0
-8423 170 0
-8424 3081 0
-8424 171 0
-8425 3082 0
-8425 172 0
-8426 3083 0
-8426 173 0
-8427 3084 0
-8427 174 0
-8428 3085 0
-8428 175 0
-8429 3086 0
-8429 176 0
-8430 3087 0
-8430 177 0
-8431 3088 0
-8431 178 0
-8432 3089 0
-8432 179 0
-8433 3090 0
-8433 180 0
-8434 3091 0
-8434 181 0
-8435 3092 0
-8435 182 0
8422 8423 8424 8425 8426 8427 8428 8429 8430 8431 8432 8433 8434 8435 0
-8436 3079 0
-8436 183 0
-8437 3080 0
-8437 184 0
-8438 3081 0
-8438 185 0
-8439 3082 0
-8439 186 0
-8440 3083 0
-8440 187 0
-8441 3084 0
-8441 188 0
-8442 3085 0
-8442 189 0
-8443 3086 0
-8443 190 0
-8444 3087 0
-8444 191 0
-8445 3088 0
-8445 192 0
-8446 3089 0
-8446 193 0
-8447 3090 0
-8447 194 0
-8448 3091 0
-8448 195 0
-8449 3092 0
-8449 196 0
8436 8437 8438 8439 8440 8441 8442 8443 8444 8445 8446 8447 8448 8449 0
-8450 3132 0
-8450 183 0
-8451 3133 0
-8451 184 0
-8452 3134 0
-8452 185 0
-8453 3135 0
-8453 186 0
-8454 3136 0
-8454 187 0
-8455 3137 0
-8455 188 0
-8456 3138 0
-8456 189 0
-8457 3139 0
-8457 190 0
-8458 3140 0
-8458 191 0
-8459 3141 0
-8459 192 0
-8460 3142 0
-8460 193 0
-8461 3143 0
-8461 194 0
-8462 3144 0
-8462 195 0
-8463 3145 0
-8463 196 0
8450 8451 8452 8453 8454 8455 8456 8457 8458 8459 8460 8461 8462 8463 0
-8464 3238 0
-8464 43 0
-8465 3239 0
-8465 44 0
-8466 3240 0
-8466 45 0
-8467 3241 0
-8467 46 0
-8468 3242 0
-8468 47 0
-8469 3243 0
-8469 48 0
-8470 3244 0
-8470 49 0
-8471 3245 0
-8471 50 0
-8472 3246 0
-8472 51 0
-8473 3247 0
-8473 52 0
-8474 3248 0
-8474 53 0
-8475 3249 0
-8475 54 0
-8476 3250 0
-8476 55 0
-8477 3251 0
-8477 56 0
8464 8465 8466 8467 8468 8469 8470 8471 8472 8473 8474 8475 8476 8477 0
-8478 3238 0
-8478 57 0
-8479 3239 0
-8479 58 0
-8480 3240 0
-8480 59 0
-8481 3241 0
-8481 60 0
-8482 3242 0
-8482 61 0
-8483 3243 0
-8483 62 0
-8484 3244 0
-8484 63 0
-8485 3245 0
-8485 64 0
-8486 3246 0
-8486 65 0
-8487 3247 0
-8487 66 0
-8488 3248 0
-8488 67 0
-8489 3249 0
-8489 68 0
-8490 3250 0
-8490 69 0
-8491 3251 0
-8491 70 0
8478 8479 8480 8481 8482 8483 8484 8485 8486 8487 8488 8489 8490 8491 0
-8492 3238 0
-8492 71 0
-8493 3239 0
-8493 72 0
-8494 3240 0
-8494 73 0
-8495 3241 0
-8495 74 0
-8496 3242 0
-8496 75 0
-8497 3243 0
-8497 76 0
-8498 3244 0
-8498 77 0
-8499 3245 0
-8499 78 0
-8500 3246 0
-8500 79 0
-8501 3247 0
-8501 80 0
-8502 3248 0
-8502 81 0
-8503 3249 0
-8503 82 0
-8504 3250 0
-8504 83 0
-8505 3251 0
-8505 84 0
8492 8493 8494 8495 8496 8497 8498 8499 8500 8501 8502 8503 8504 8505 0
-8506 3238 0
-8506 85 0
-8507 3239 0
-8507 86 0
-8508 3240 0
-8508 87 0
-8509 3241 0
-8509 88 0
-8510 3242 0
-8510 89 0
-8511 3243 0
-8511 90 0
-8512 3244 0
-8512 91 0
-8513 3245 0
-8513 92 0
-8514 3246 0
-8514 93 0
-8515 3247 0
-8515 94 0
-8516 3248 0
-8516 95 0
-8517 3249 0
-8517 96 0
-8518 3250 0
-8518 97 0
-8519 3251 0
-8519 98 0
8506 8507 8508 8509 8510 8511 8512 8513 8514 8515 8516 8517 8518 8519 0
-8520 3238 0
-8520 99 0
-8521 3239 0
-8521 100 0
-8522 3240 0
-8522 101 0
-8523 3241 0
-8523 102 0
-8524 3242 0
-8524 103 0
-8525 3243 0
-8525 104 0
-8526 3244 0
-8526 105 0
-8527 3245 0
-8527 106 0
-8528 3246 0
-8528 107 0
-8529 3247 0
-8529 108 0
-8530 3248 0
-8530 109 0
-8531 3249 0
-8531 110 0
-8532 3250 0
-8532 111 0
-8533 3251 0
-8533 112 0
8520 8521 8522 8523 8524 8525 8526 8527 8528 8529 8530 8531 8532 8533 0
-8534 3238 0
-8534 113 0
-8535 3239 0
-8535 114 0
-8536 3240 0
-8536 115 0
-8537 3241 0
-8537 116 0
-8538 3242 0
-8538 117 0
-8539 3243 0
-8539 118 0
-8540 3244 0
-8540 119 0
-8541 3245 0
-8541 120 0
-8542 3246 0
-8542 121 0
-8543 3247 0
-8543 122 0
-8544 3248 0
-8544 123 0
-8545 3249 0
-8545 124 0
-8546 3250 0
-8546 125 0
-8547 3251 0
-8547 126 0
8534 8535 8536 8537 8538 8539 8540 8541 8542 8543 8544 8545 8546 8547 0
-8548 3238 0
-8548 127 0
-8549 3239 0
-8549 128 0
-8550 3240 0
-8550 129 0
-8551 3241 0
-8551 130 0
-8552 3242 0
-8552 131 0
-8553 3243 0
-8553 132 0
-8554 3244 0
-8554 133 0
-8555 3245 0
-8555 134 0
-8556 3246 0
-8556 135 0
-8557 3247 0
-8557 136 0
-8558 3248 0
-8558 137 0
-8559 3249 0
-8559 138 0
-8560 3250 0
-8560 139 0
-8561 3251 0
-8561 140 0
8548 8549 8550 8551 8552 8553 8554 8555 8556 8557 8558 8559 8560 8561 0
-8562 3238 0
-8562 141 0
-8563 3239 0
-8563 142 0
-8564 3240 0
-8564 143 0
-8565 3241 0
-8565 144 0
-8566 3242 0
-8566 145 0
-8567 3243 0
-8567 146 0
-8568 3244 0
-8568 147 0
-8569 3245 0
-8569 148 0
-8570 3246 0
-8570 149 0
-8571 3247 0
-8571 150 0
-8572 3248 0
-8572 151 0
-8573 3249 0
-8573 152 0
-8574 3250 0
-8574 153 0
-8575 3251 0
-8575 154 0
8562 8563 8564 8565 8566 8567 8568 8569 8570 8571 8572 8573 8574 8575 0
-8576 3238 0
-8576 155 0
-8577 3239 0
-8577 156 0
-8578 3240 0
-8578 157 0
-8579 3241 0
-8579 158 0
-8580 3242 0
-8580 159 0
-8581 3243 0
-8581 160 0
-8582 3244 0
-8582 161 0
-8583 3245 0
-8583 162 0
-8584 3246 0
-8584 163 0
-8585 3247 0
-8585 164 0
-8586 3248 0
-8586 165 0
-8587 3249 0
-8587 166 0
-8588 3250 0
-8588 167 0
-8589 3251 0
-8589 168 0
8576 8577 8578 8579 8580 8581 8582 8583 8584 8585 8586 8587 8588 8589 0
-8590 3238 0
-8590 169 0
-8591 3239 0
-8591 170 0
-8592 3240 0
-8592 171 0
-8593 3241 0
-8593 172 0
-8594 3242 0
-8594 173 0
-8595 3243 0
-8595 174 0
-8596 3244 0
-8596 175 0
-8597 3245 0
-8597 176 0
-8598 3246 0
-8598 177 0
-8599 3247 0
-8599 178 0
-8600 3248 0
-8600 179 0
-8601 3249 0
-8601 180 0
-8602 3250 0
-8602 181 0
-8603 3251 0
-8603 182 0
8590 8591 8592 8593 8594 8595 8596 8597 8598 8599 8600 8601 8602 8603 0
-8604 3238 0
-8604 183 0
-8605 3239 0
-8605 184 0
-8606 3240 0
-8606 185 0
-8607 3241 0
-8607 186 0
-8608 3242 0
-8608 187 0
-8609 3243 0
-8609 188 0
-8610 3244 0
-8610 189 0
-8611 3245 0
-8611 190 0
-8612 3246 0
-8612 191 0
-8613 3247 0
-8613 192 0
-8614 3248 0
-8614 193 0
-8615 3249 0
-8615 194 0
-8616 3250 0
-8616 195 0
-8617 3251 0
-8617 196 0
8604 8605 8606 8607 8608 8609 8610 8611 8612 8613 8614 8615 8616 8617 0
-8618 3291 0
-8618 57 0
-8619 3292 0
-8619 58 0
-8620 3293 0
-8620 59 0
-8621 3294 0
-8621 60 0
-8622 3295 0
-8622 61 0
-8623 3296 0
-8623 62 0
-8624 3297 0
-8624 63 0
-8625 3298 0
-8625 64 0
-8626 3299 0
-8626 65 0
-8627 3300 0
-8627 66 0
-8628 3301 0
-8628 67 0
-8629 3302 0
-8629 68 0
-8630 3303 0
-8630 69 0
-8631 3304 0
-8631 70 0
8618 8619 8620 8621 8622 8623 8624 8625 8626 8627 8628 8629 8630 8631 0
-8632 3291 0
-8632 71 0
-8633 3292 0
-8633 72 0
-8634 3293 0
-8634 73 0
-8635 3294 0
-8635 74 0
-8636 3295 0
-8636 75 0
-8637 3296 0
-8637 76 0
-8638 3297 0
-8638 77 0
-8639 3298 0
-8639 78 0
-8640 3299 0
-8640 79 0
-8641 3300 0
-8641 80 0
-8642 3301 0
-8642 81 0
-8643 3302 0
-8643 82 0
-8644 3303 0
-8644 83 0
-8645 3304 0
-8645 84 0
8632 8633 8634 8635 8636 8637 8638 8639 8640 8641 8642 8643 8644 8645 0
-8646 3291 0
-8646 85 0
-8647 3292 0
-8647 86 0
-8648 3293 0
-8648 87 0
-8649 3294 0
-8649 88 0
-8650 3295 0
-8650 89 0
-8651 3296 0
-8651 90 0
-8652 3297 0
-8652 91 0
-8653 3298 0
-8653 92 0
-8654 3299 0
-8654 93 0
-8655 3300 0
-8655 94 0
-8656 3301 0
-8656 95 0
-8657 3302 0
-8657 96 0
-8658 3303 0
-8658 97 0
-8659 3304 0
-8659 98 0
8646 8647 8648 8649 8650 8651 8652 8653 8654 8655 8656 8657 8658 8659 0
-8660 3291 0
-8660 99 0
-8661 3292 0
-8661 100 0
-8662 3293 0
-8662 101 0
-8663 3294 0
-8663 102 0
-8664 3295 0
-8664 103 0
-8665 3296 0
-8665 104 0
-8666 3297 0
-8666 105 0
-8667 3298 0
-8667 106 0
-8668 3299 0
-8668 107 0
-8669 3300 0
-8669 108 0
-8670 3301 0
-8670 109 0
-8671 3302 0
-8671 110 0
-8672 3303 0
-8672 111 0
-8673 3304 0
-8673 112 0
8660 8661 8662 8663 8664 8665 8666 8667 8668 8669 8670 8671 8672 8673 0
-8674 3291 0
-8674 113 0
-8675 3292 0
-8675 114 0
-8676 3293 0
-8676 115 0
-8677 3294 0
-8677 116 0
-8678 3295 0
-8678 117 0
-8679 3296 0
-8679 118 0
-8680 3297 0
-8680 119 0
-8681 3298 0
-8681 120 0
-8682 3299 0
-8682 121 0
-8683 3300 0
-8683 122 0
-8684 3301 0
-8684 123 0
-8685 3302 0
-8685 124 0
-8686 3303 0
-8686 125 0
-8687 3304 0
-8687 126 0
8674 8675 8676 8677 8678 8679 8680 8681 8682 8683 8684 8685 8686 8687 0
-8688 3291 0
-8688 127 0
-8689 3292 0
-8689 128 0
-8690 3293 0
-8690 129 0
-8691 3294 0
-8691 130 0
-8692 3295 0
-8692 131 0
-8693 3296 0
-8693 132 0
-8694 3297 0
-8694 133 0
-8695 3298 0
-8695 134 0
-8696 3299 0
-8696 135 0
-8697 3300 0
-8697 136 0
-8698 3301 0
-8698 137 0
-8699 3302 0
-8699 138 0
-8700 3303 0
-8700 139 0
-8701 3304 0
-8701 140 0
8688 8689 8690 8691 8692 8693 8694 8695 8696 8697 8698 8699 8700 8701 0
-8702 3291 0
-8702 141 0
-8703 3292 0
-8703 142 0
-8704 3293 0
-8704 143 0
-8705 3294 0
-8705 144 0
-8706 3295 0
-8706 145 0
-8707 3296 0
-8707 146 0
-8708 3297 0
-8708 147 0
-8709 3298 0
-8709 148 0
-8710 3299 0
-8710 149 0
-8711 3300 0
-8711 150 0
-8712 3301 0
-8712 151 0
-8713 3302 0
-8713 152 0
-8714 3303 0
-8714 153 0
-8715 3304 0
-8715 154 0
8702 8703 8704 8705 8706 8707 8708 8709 8710 8711 8712 8713 8714 8715 0
-8716 3291 0
-8716 155 0
-8717 3292 0
-8717 156 0
-8718 3293 0
-8718 157 0
-8719 3294 0
-8719 158 0
-8720 3295 0
-8720 159 0
-8721 3296 0
-8721 160 0
-8722 3297 0
-8722 161 0
-8723 3298 0
-8723 162 0
-8724 3299 0
-8724 163 0
-8725 3300 0
-8725 164 0
-8726 3301 0
-8726 165 0
-8727 3302 0
-8727 166 0
-8728 3303 0
-8728 167 0
-8729 3304 0
-8729 168 0
8716 8717 8718 8719 8720 8721 8722 8723 8724 8725 8726 8727 8728 8729 0
-8730 3291 0
-8730 169 0
-8731 3292 0
-8731 170 0
-8732 3293 0
-8732 171 0
-8733 3294 0
-8733 172 0
-8734 3295 0
-8734 173 0
-8735 3296 0
-8735 174 0
-8736 3297 0
-8736 175 0
-8737 3298 0
-8737 176 0
-8738 3299 0
-8738 177 0
-8739 3300 0
-8739 178 0
-8740 3301 0
-8740 179 0
-8741 3302 0
-8741 180 0
-8742 3303 0
-8742 181 0
-8743 3304 0
-8743 182 0
8730 8731 8732 8733 8734 8735 8736 8737 8738 8739 8740 8741 8742 8743 0
-8744 3291 0
-8744 183 0
-8745 3292 0
-8745 184 0
-8746 3293 0
-8746 185 0
-8747 3294 0
-8747 186 0
-8748 3295 0
-8748 187 0
-8749 3296 0
-8749 188 0
-8750 3297 0
-8750 189 0
-8751 3298 0
-8751 190 0
-8752 3299 0
-8752 191 0
-8753 3300 0
-8753 192 0
-8754 3301 0
-8754 193 0
-8755 3302 0
-8755 194 0
-8756 3303 0
-8756 195 0
-8757 3304 0
-8757 196 0
8744 8745 8746 8747 8748 8749 8750 8751 8752 8753 8754 8755 8756 8757 0
-8758 3344 0
-8758 71 0
-8759 3345 0
-8759 72 0
-8760 3346 0
-8760 73 0
-8761 3347 0
-8761 74 0
-8762 3348 0
-8762 75 0
-8763 3349 0
-8763 76 0
-8764 3350 0
-8764 77 0
-8765 3351 0
-8765 78 0
-8766 3352 0
-8766 79 0
-8767 3353 0
-8767 80 0
-8768 3354 0
-8768 81 0
-8769 3355 0
-8769 82 0
-8770 3356 0
-8770 83 0
-8771 3357 0
-8771 84 0
8758 8759 8760 8761 8762 8763 8764 8765 8766 8767 8768 8769 8770 8771 0
-8772 3344 0
-8772 85 0
-8773 3345 0
-8773 86 0
-8774 3346 0
-8774 87 0
-8775 3347 0
-8775 88 0
-8776 3348 0
-8776 89 0
-8777 3349 0
-8777 90 0
-8778 3350 0
-8778 91 0
-8779 3351 0
-8779 92 0
-8780 3352 0
-8780 93 0
-8781 3353 0
-8781 94 0
-8782 3354 0
-8782 95 0
-8783 3355 0
-8783 96 0
-8784 3356 0
-8784 97 0
-8785 3357 0
-8785 98 0
8772 8773 8774 8775 8776 8777 8778 8779 8780 8781 8782 8783 8784 8785 0
-8786 3344 0
-8786 99 0
-8787 3345 0
-8787 100 0
-8788 3346 0
-8788 101 0
-8789 3347 0
-8789 102 0
-8790 3348 0
-8790 103 0
-8791 3349 0
-8791 104 0
-8792 3350 0
-8792 105 0
-8793 3351 0
-8793 106 0
-8794 3352 0
-8794 107 0
-8795 3353 0
-8795 108 0
-8796 3354 0
-8796 109 0
-8797 3355 0
-8797 110 0
-8798 3356 0
-8798 111 0
-8799 3357 0
-8799 112 0
8786 8787 8788 8789 8790 8791 8792 8793 8794 8795 8796 8797 8798 8799 0
-8800 3344 0
-8800 113 0
-8801 3345 0
-8801 114 0
-8802 3346 0
-8802 115 0
-8803 3347 0
-8803 116 0
-8804 3348 0
-8804 117 0
-8805 3349 0
-8805 118 0
-8806 3350 0
-8806 119 0
-8807 3351 0
-8807 120 0
-8808 3352 0
-8808 121 0
-8809 3353 0
-8809 122 0
-8810 3354 0
-8810 123 0
-8811 3355 0
-8811 124 0
-8812 3356 0
-8812 125 0
-8813 3357 0
-8813 126 0
8800 8801 8802 8803 8804 8805 8806 8807 8808 8809 8810 8811 8812 8813 0
-8814 3344 0
-8814 127 0
-8815 3345 0
-8815 128 0
-8816 3346 0
-8816 129 0
-8817 3347 0
-8817 130 0
-8818 3348 0
-8818 131 0
-8819 3349 0
-8819 132 0
-8820 3350 0
-8820 133 0
-8821 3351 0
-8821 134 0
-8822 3352 0
-8822 135 0
-8823 3353 0
-8823 136 0
-8824 3354 0
-8824 137 0
-8825 3355 0
-8825 138 0
-8826 3356 0
-8826 139 0
-8827 3357 0
-8827 140 0
8814 8815 8816 8817 8818 8819 8820 8821 8822 8823 8824 8825 8826 8827 0
-8828 3344 0
-8828 141 0
-8829 3345 0
-8829 142 0
-8830 3346 0
-8830 143 0
-8831 3347 0
-8831 144 0
-8832 3348 0
-8832 145 0
-8833 3349 0
-8833 146 0
-8834 3350 0
-8834 147 0
-8835 3351 0
-8835 148 0
-8836 3352 0
-8836 149 0
-8837 3353 0
-8837 150 0
-8838 3354 0
-8838 151 0
-8839 3355 0
-8839 152 0
-8840 3356 0
-8840 153 0
-8841 3357 0
-8841 154 0
8828 8829 8830 8831 8832 8833 8834 8835 8836 8837 8838 8839 8840 8841 0
-8842 3344 0
-8842 155 0
-8843 3345 0
-8843 156 0
-8844 3346 0
-8844 157 0
-8845 3347 0
-8845 158 0
-8846 3348 0
-8846 159 0
-8847 3349 0
-8847 160 0
-8848 3350 0
-8848 161 0
-8849 3351 0
-8849 162 0
-8850 3352 0
-8850 163 0
-8851 3353 0
-8851 164 0
-8852 3354 0
-8852 165 0
-8853 3355 0
-8853 166 0
-8854 3356 0
-8854 167 0
-8855 3357 0
-8855 168 0
8842 8843 8844 8845 8846 8847 8848 8849 8850 8851 8852 8853 8854 8855 0
-8856 3344 0
-8856 169 0
-8857 3345 0
-8857 170 0
-8858 3346 0
-8858 171 0
-8859 3347 0
-8859 172 0
-8860 3348 0
-8860 173 0
-8861 3349 0
-8861 174 0
-8862 3350 0
-8862 175 0
-8863 3351 0
-8863 176 0
-8864 3352 0
-8864 177 0
-8865 3353 0
-8865 178 0
-8866 3354 0
-8866 179 0
-8867 3355 0
-8867 180 0
-8868 3356 0
-8868 181 0
-8869 3357 0
-8869 182 0
8856 8857 8858 8859 8860 8861 8862 8863 8864 8865 8866 8867 8868 8869 0
-8870 3344 0
-8870 183 0
-8871 3345 0
-8871 184 0
-8872 3346 0
-8872 185 0
-8873 3347 0
-8873 186 0
-8874 3348 0
-8874 187 0
-8875 3349 0
-8875 188 0
-8876 3350 0
-8876 189 0
-8877 3351 0
-8877 190 0
-8878 3352 0
-8878 191 0
-8879 3353 0
-8879 192 0
-8880 3354 0
-8880 193 0
-8881 3355 0
-8881 194 0
-8882 3356 0
-8882 195 0
-8883 3357 0
-8883 196 0
8870 8871 8872 8873 8874 8875 8876 8877 8878 8879 8880 8881 8882 8883 0
-8884 3397 0
-8884 85 0
-8885 3398 0
-8885 86 0
-8886 3399 0
-8886 87 0
-8887 3400 0
-8887 88 0
-8888 3401 0
-8888 89 0
-8889 3402 0
-8889 90 0
-8890 3403 0
-8890 91 0
-8891 3404 0
-8891 92 0
-8892 3405 0
-8892 93 0
-8893 3406 0
-8893 94 0
-8894 3407 0
-8894 95 0
-8895 3408 0
-8895 96 0
-8896 3409 0
-8896 97 0
-8897 3410 0
-8897 98 0
8884 8885 8886 8887 8888 8889 8890 8891 8892 8893 8894 8895 8896 8897 0
-8898 3397 0
-8898 99 0
-8899 3398 0
-8899 100 0
-8900 3399 0
-8900 101 0
-8901 3400 0
-8901 102 0
-8902 3401 0
-8902 103 0
-8903 3402 0
-8903 104 0
-8904 3403 0
-8904 105 0
-8905 3404 0
-8905 106 0
-8906 3405 0
-8906 107 0
-8907 3406 0
-8907 108 0
-8908 3407 0
-8908 109 0
-8909 3408 0
-8909 110 0
-8910 3409 0
-8910 111 0
-8911 3410 0
-8911 112 0
8898 8899 8900 8901 8902 8903 8904 8905 8906 8907 8908 8909 8910 8911 0
-8912 3397 0
-8912 113 0
-8913 3398 0
-8913 114 0
-8914 3399 0
-8914 115 0
-8915 3400 0
-8915 116 0
-8916 3401 0
-8916 117 0
-8917 3402 0
-8917 118 0
-8918 3403 0
-8918 119 0
-8919 3404 0
-8919 120 0
-8920 3405 0
-8920 121 0
-8921 3406 0
-8921 122 0
-8922 3407 0
-8922 123 0
-8923 3408 0
-8923 124 0
-8924 3409 0
-8924 125 0
-8925 3410 0
-8925 126 0
8912 8913 8914 8915 8916 8917 8918 8919 8920 8921 8922 8923 8924 8925 0
-8926 3397 0
-8926 127 0
-8927 3398 0
-8927 128 0
-8928 3399 0
-8928 129 0
-8929 3400 0
-8929 130 0
-8930 3401 0
-8930 131 0
-8931 3402 0
-8931 132 0
-8932 3403 0
-8932 133 0
-8933 3404 0
-8933 134 0
-8934 3405 0
-8934 135 0
-8935 3406 0
-8935 136 0
-8936 3407 0
-8936 137 0
-8937 3408 0
-8937 138 0
-8938 3409 0
-8938 139 0
-8939 3410 0
-8939 140 0
8926 8927 8928 8929 8930 8931 8932 8933 8934 8935 8936 8937 8938 8939 0
-8940 3397 0
-8940 141 0
-8941 3398 0
-8941 142 0
-8942 3399 0
-8942 143 0
-8943 3400 0
-8943 144 0
-8944 3401 0
-8944 145 0
-8945 3402 0
-8945 146 0
-8946 3403 0
-8946 147 0
-8947 3404 0
-8947 148 0
-8948 3405 0
-8948 149 0
-8949 3406 0
-8949 150 0
-8950 3407 0
-8950 151 0
-8951 3408 0
-8951 152 0
-8952 3409 0
-8952 153 0
-8953 3410 0
-8953 154 0
8940 8941 8942 8943 8944 8945 8946 8947 8948 8949 8950 8951 8952 8953 0
-8954 3397 0
-8954 155 0
-8955 3398 0
-8955 156 0
-8956 3399 0
-8956 157 0
-8957 3400 0
-8957 158 0
-8958 3401 0
-8958 159 0
-8959 3402 0
-8959 160 0
-8960 3403 0
-8960 161 0
-8961 3404 0
-8961 162 0
-8962 3405 0
-8962 163 0
-8963 3406 0
-8963 164 0
-8964 3407 0
-8964 165 0
-8965 3408 0
-8965 166 0
-8966 3409 0
-8966 167 0
-8967 3410 0
-8967 168 0
8954 8955 8956 8957 8958 8959 8960 8961 8962 8963 8964 8965 8966 8967 0
-8968 3397 0
-8968 169 0
-8969 3398 0
-8969 170 0
-8970 3399 0
-8970 171 0
-8971 3400 0
-8971 172 0
-8972 3401 0
-8972 173 0
-8973 3402 0
-8973 174 0
-8974 3403 0
-8974 175 0
-8975 3404 0
-8975 176 0
-8976 3405 0
-8976 177 0
-8977 3406 0
-8977 178 0
-8978 3407 0
-8978 179 0
-8979 3408 0
-8979 180 0
-8980 3409 0
-8980 181 0
-8981 3410 0
-8981 182 0
8968 8969 8970 8971 8972 8973 8974 8975 8976 8977 8978 8979 8980 8981 0
-8982 3397 0
-8982 183 0
-8983 3398 0
-8983 184 0
-8984 3399 0
-8984 185 0
-8985 3400 0
-8985 186 0
-8986 3401 0
-8986 187 0
-8987 3402 0
-8987 188 0
-8988 3403 0
-8988 189 0
-8989 3404 0
-8989 190 0
-8990 3405 0
-8990 191 0
-8991 3406 0
-8991 192 0
-8992 3407 0
-8992 193 0
-8993 3408 0
-8993 194 0
-8994 3409 0
-8994 195 0
-8995 3410 0
-8995 196 0
8982 8983 8984 8985 8986 8987 8988 8989 8990 8991 8992 8993 8994 8995 0
-8996 3450 0
-8996 99 0
-8997 3451 0
-8997 100 0
-8998 3452 0
-8998 101 0
-8999 3453 0
-8999 102 0
-9000 3454 0
-9000 103 0
-9001 3455 0
-9001 104 0
-9002 3456 0
-9002 105 0
-9003 3457 0
-9003 106 0
-9004 3458 0
-9004 107 0
-9005 3459 0
-9005 108 0
-9006 3460 0
-9006 109 0
-9007 3461 0
-9007 110 0
-9008 3462 0
-9008 111 0
-9009 3463 0
-9009 112 0
8996 8997 8998 8999 9000 9001 9002 9003 9004 9005 9006 9007 9008 9009 0
-9010 3450 0
-9010 113 0
-9011 3451 0
-9011 114 0
-9012 3452 0
-9012 115 0
-9013 3453 0
-9013 116 0
-9014 3454 0
-9014 117 0
-9015 3455 0
-9015 118 0
-9016 3456 0
-9016 119 0
-9017 3457 0
-9017 120 0
-9018 3458 0
-9018 121 0
-9019 3459 0
-9019 122 0
-9020 3460 0
-9020 123 0
-9021 3461 0
-9021 124 0
-9022 3462 0
-9022 125 0
-9023 3463 0
-9023 126 0
9010 9011 9012 9013 9014 9015 9016 9017 9018 9019 9020 9021 9022 9023 0
-9024 3450 0
-9024 127 0
-9025 3451 0
-9025 128 0
-9026 3452 0
-9026 129 0
-9027 3453 0
-9027 130 0
-9028 3454 0
-9028 131 0
-9029 3455 0
-9029 132 0
-9030 3456 0
-9030 133 0
-9031 3457 0
-9031 134 0
-9032 3458 0
-9032 135 0
-9033 3459 0
-9033 136 0
-9034 3460 0
-9034 137 0
-9035 3461 0
-9035 138 0
-9036 3462 0
-9036 139 0
-9037 3463 0
-9037 140 0
9024 9025 9026 9027 9028 9029 9030 9031 9032 9033 9034 9035 9036 9037 0
-9038 3450 0
-9038 141 0
-9039 3451 0
-9039 142 0
-9040 3452 0
-9040 143 0
-9041 3453 0
-9041 144 0
-9042 3454 0
-9042 145 0
-9043 3455 0
-9043 146 0
-9044 3456 0
-9044 147 0
-9045 3457 0
-9045 148 0
-9046 3458 0
-9046 149 0
-9047 3459 0
-9047 150 0
-9048 3460 0
-9048 151 0
-9049 3461 0
-9049 152 0
-9050 3462 0
-9050 153 0
-9051 3463 0
-9051 154 0
9038 9039 9040 9041 9042 9043 9044 9045 9046 9047 9048 9049 9050 9051 0
-9052 3450 0
-9052 155 0
-9053 3451 0
-9053 156 0
-9054 3452 0
-9054 157 0
-9055 3453 0
-9055 158 0
-9056 3454 0
-9056 159 0
-9057 3455 0
-9057 160 0
-9058 3456 0
-9058 161 0
-9059 3457 0
-9059 162 0
-9060 3458 0
-9060 163 0
-9061 3459 0
-9061 164 0
-9062 3460 0
-9062 165 0
-9063 3461 0
-9063 166 0
-9064 3462 0
-9064 167 0
-9065 3463 0
-9065 168 0
9052 9053 9054 9055 9056 9057 9058 9059 9060 9061 9062 9063 9064 9065 0
-9066 3450 0
-9066 169 0
-9067 3451 0
-9067 170 0
-9068 3452 0
-9068 171 0
-9069 3453 0
-9069 172 0
-9070 3454 0
-9070 173 0
-9071 3455 0
-9071 174 0
-9072 3456 0
-9072 175 0
-9073 3457 0
-9073 176 0
-9074 3458 0
-9074 177 0
-9075 3459 0
-9075 178 0
-9076 3460 0
-9076 179 0
-9077 3461 0
-9077 180 0
-9078 3462 0
-9078 181 0
-9079 3463 0
-9079 182 0
9066 9067 9068 9069 9070 9071 9072 9073 9074 9075 9076 9077 9078 9079 0
-9080 3450 0
-9080 183 0
-9081 3451 0
-9081 184 0
-9082 3452 0
-9082 185 0
-9083 3453 0
-9083 186 0
-9084 3454 0
-9084 187 0
-9085 3455 0
-9085 188 0
-9086 3456 0
-9086 189 0
-9087 3457 0
-9087 190 0
-9088 3458 0
-9088 191 0
-9089 3459 0
-9089 192 0
-9090 3460 0
-9090 193 0
-9091 3461 0
-9091 194 0
-9092 3462 0
-9092 195 0
-9093 3463 0
-9093 196 0
9080 9081 9082 9083 9084 9085 9086 9087 9088 9089 9090 9091 9092 9093 0
-9094 3503 0
-9094 113 0
-9095 3504 0
-9095 114 0
-9096 3505 0
-9096 115 0
-9097 3506 0
-9097 116 0
-9098 3507 0
-9098 117 0
-9099 3508 0
-9099 118 0
-9100 3509 0
-9100 119 0
-9101 3510 0
-9101 120 0
-9102 3511 0
-9102 121 0
-9103 3512 0
-9103 122 0
-9104 3513 0
-9104 123 0
-9105 3514 0
-9105 124 0
-9106 3515 0
-9106 125 0
-9107 3516 0
-9107 126 0
9094 9095 9096 9097 9098 9099 9100 9101 9102 9103 9104 9105 9106 9107 0
-9108 3503 0
-9108 127 0
-9109 3504 0
-9109 128 0
-9110 3505 0
-9110 129 0
-9111 3506 0
-9111 130 0
-9112 3507 0
-9112 131 0
-9113 3508 0
-9113 132 0
-9114 3509 0
-9114 133 0
-9115 3510 0
-9115 134 0
-9116 3511 0
-9116 135 0
-9117 3512 0
-9117 136 0
-9118 3513 0
-9118 137 0
-9119 3514 0
-9119 138 0
-9120 3515 0
-9120 139 0
-9121 3516 0
-9121 140 0
9108 9109 9110 9111 9112 9113 9114 9115 9116 9117 9118 9119 9120 9121 0
-9122 3503 0
-9122 141 0
-9123 3504 0
-9123 142 0
-9124 3505 0
-9124 143 0
-9125 3506 0
-9125 144 0
-9126 3507 0
-9126 145 0
-9127 3508 0
-9127 146 0
-9128 3509 0
-9128 147 0
-9129 3510 0
-9129 148 0
-9130 3511 0
-9130 149 0
-9131 3512 0
-9131 150 0
-9132 3513 0
-9132 151 0
-9133 3514 0
-9133 152 0
-9134 3515 0
-9134 153 0
-9135 3516 0
-9135 154 0
9122 9123 9124 9125 9126 9127 9128 9129 9130 9131 9132 9133 9134 9135 0
-9136 3503 0
-9136 155 0
-9137 3504 0
-9137 156 0
-9138 3505 0
-9138 157 0
-9139 3506 0
-9139 158 0
-9140 3507 0
-9140 159 0
-9141 3508 0
-9141 160 0
-9142 3509 0
-9142 161 0
-9143 3510 0
-9143 162 0
-9144 3511 0
-9144 163 0
-9145 3512 0
-9145 164 0
-9146 3513 0
-9146 165 0
-9147 3514 0
-9147 166 0
-9148 3515 0
-9148 167 0
-9149 3516 0
-9149 168 0
9136 9137 9138 9139 9140 9141 9142 9143 9144 9145 9146 9147 9148 9149 0
-9150 3503 0
-9150 169 0
-9151 3504 0
-9151 170 0
-9152 3505 0
-9152 171 0
-9153 3506 0
-9153 172 0
-9154 3507 0
-9154 173 0
-9155 3508 0
-9155 174 0
-9156 3509 0
-9156 175 0
-9157 3510 0
-9157 176 0
-9158 3511 0
-9158 177 0
-9159 3512 0
-9159 178 0
-9160 3513 0
-9160 179 0
-9161 3514 0
-9161 180 0
-9162 3515 0
-9162 181 0
-9163 3516 0
-9163 182 0
9150 9151 9152 9153 9154 9155 9156 9157 9158 9159 9160 9161 9162 9163 0
-9164 3503 0
-9164 183 0
-9165 3504 0
-9165 184 0
-9166 3505 0
-9166 185 0
-9167 3506 0
-9167 186 0
-9168 3507 0
-9168 187 0
-9169 3508 0
-9169 188 0
-9170 3509 0
-9170 189 0
-9171 3510 0
-9171 190 0
-9172 3511 0
-9172 191 0
-9173 3512 0
-9173 192 0
-9174 3513 0
-9174 193 0
-9175 3514 0
-9175 194 0
-9176 3515 0
-9176 195 0
-9177 3516 0
-9177 196 0
9164 9165 9166 9167 9168 9169 9170 9171 9172 9173 9174 9175 9176 9177 0
-9178 3556 0
-9178 127 0
-9179 3557 0
-9179 128 0
-9180 3558 0
-9180 129 0
-9181 3559 0
-9181 130 0
-9182 3560 0
-9182 131 0
-9183 3561 0
-9183 132 0
-9184 3562 0
-9184 133 0
-9185 3563 0
-9185 134 0
-9186 3564 0
-9186 135 0
-9187 3565 0
-9187 136 0
-9188 3566 0
-9188 137 0
-9189 3567 0
-9189 138 0
-9190 3568 0
-9190 139 0
-9191 3569 0
-9191 140 0
9178 9179 9180 9181 9182 9183 9184 9185 9186 9187 9188 9189 9190 9191 0
-9192 3556 0
-9192 141 0
-9193 3557 0
-9193 142 0
-9194 3558 0
-9194 143 0
-9195 3559 0
-9195 144 0
-9196 3560 0
-9196 145 0
-9197 3561 0
-9197 146 0
-9198 3562 0
-9198 147 0
-9199 3563 0
-9199 148 0
-9200 3564 0
-9200 149 0
-9201 3565 0
-9201 150 0
-9202 3566 0
-9202 151 0
-9203 3567 0
-9203 152 0
-9204 3568 0
-9204 153 0
-9205 3569 0
-9205 154 0
9192 9193 9194 9195 9196 9197 9198 9199 9200 9201 9202 9203 9204 9205 0
-9206 3556 0
-9206 155 0
-9207 3557 0
-9207 156 0
-9208 3558 0
-9208 157 0
-9209 3559 0
-9209 158 0
-9210 3560 0
-9210 159 0
-9211 3561 0
-9211 160 0
-9212 3562 0
-9212 161 0
-9213 3563 0
-9213 162 0
-9214 3564 0
-9214 163 0
-9215 3565 0
-9215 164 0
-9216 3566 0
-9216 165 0
-9217 3567 0
-9217 166 0
-9218 3568 0
-9218 167 0
-9219 3569 0
-9219 168 0
9206 9207 9208 9209 9210 9211 9212 9213 9214 9215 9216 9217 9218 9219 0
-9220 3556 0
-9220 169 0
-9221 3557 0
-9221 170 0
-9222 3558 0
-9222 171 0
-9223 3559 0
-9223 172 0
-9224 3560 0
-9224 173 0
-9225 3561 0
-9225 174 0
-9226 3562 0
-9226 175 0
-9227 3563 0
-9227 176 0
-9228 3564 0
-9228 177 0
-9229 3565 0
-9229 178 0
-9230 3566 0
-9230 179 0
-9231 3567 0
-9231 180 0
-9232 3568 0
-9232 181 0
-9233 3569 0
-9233 182 0
9220 9221 9222 9223 9224 9225 9226 9227 9228 9229 9230 9231 9232 9233 0
-9234 3556 0
-9234 183 0
-9235 3557 0
-9235 184 0
-9236 3558 0
-9236 185 0
-9237 3559 0
-9237 186 0
-9238 3560 0
-9238 187 0
-9239 3561 0
-9239 188 0
-9240 3562 0
-9240 189 0
-9241 3563 0
-9241 190 0
-9242 3564 0
-9242 191 0
-9243 3565 0
-9243 192 0
-9244 3566 0
-9244 193 0
-9245 3567 0
-9245 194 0
-9246 3568 0
-9246 195 0
-9247 3569 0
-9247 196 0
9234 9235 9236 9237 9238 9239 9240 9241 9242 9243 9244 9245 9246 9247 0
-9248 3609 0
-9248 141 0
-9249 3610 0
-9249 142 0
-9250 3611 0
-9250 143 0
-9251 3612 0
-9251 144 0
-9252 3613 0
-9252 145 0
-9253 3614 0
-9253 146 0
-9254 3615 0
-9254 147 0
-9255 3616 0
-9255 148 0
-9256 3617 0
-9256 149 0
-9257 3618 0
-9257 150 0
-9258 3619 0
-9258 151 0
-9259 3620 0
-9259 152 0
-9260 3621 0
-9260 153 0
-9261 3622 0
-9261 154 0
9248 9249 9250 9251 9252 9253 9254 9255 9256 9257 9258 9259 9260 9261 0
-9262 3609 0
-9262 155 0
-9263 3610 0
-9263 156 0
-9264 3611 0
-9264 157 0
-9265 3612 0
-9265 158 0
-9266 3613 0
-9266 159 0
-9267 3614 0
-9267 160 0
-9268 3615 0
-9268 161 0
-9269 3616 0
-9269 162 0
-9270 3617 0
-9270 163 0
-9271 3618 0
-9271 164 0
-9272 3619 0
-9272 165 0
-9273 3620 0
-9273 166 0
-9274 3621 0
-9274 167 0
-9275 3622 0
-9275 168 0
9262 9263 9264 9265 9266 9267 9268 9269 9270 9271 9272 9273 9274 9275 0
-9276 3609 0
-9276 169 0
-9277 3610 0
-9277 170 0
-9278 3611 0
-9278 171 0
-9279 3612 0
-9279 172 0
-9280 3613 0
-9280 173 0
-9281 3614 0
-9281 174 0
-9282 3615 0
-9282 175 0
-9283 3616 0
-9283 176 0
-9284 3617 0
-9284 177 0
-9285 3618 0
-9285 178 0
-9286 3619 0
-9286 179 0
-9287 3620 0
-9287 180 0
-9288 3621 0
-9288 181 0
-9289 3622 0
-9289 182 0
9276 9277 9278 9279 9280 9281 9282 9283 9284 9285 9286 9287 9288 9289 0
-9290 3609 0
-9290 183 0
-9291 3610 0
-9291 184 0
-9292 3611 0
-9292 185 0
-9293 3612 0
-9293 186 0
-9294 3613 0
-9294 187 0
-9295 3614 0
-9295 188 0
-9296 3615 0
-9296 189 0
-9297 3616 0
-9297 190 0
-9298 3617 0
-9298 191 0
-9299 3618 0
-9299 192 0
-9300 3619 0
-9300 193 0
-9301 3620 0
-9301 194 0
-9302 3621 0
-9302 195 0
-9303 3622 0
-9303 196 0
9290 9291 9292 9293 9294 9295 9296 9297 9298 9299 9300 9301 9302 9303 0
-9304 3662 0
-9304 155 0
-9305 3663 0
-9305 156 0
-9306 3664 0
-9306 157 0
-9307 3665 0
-9307 158 0
-9308 3666 0
-9308 159 0
-9309 3667 0
-9309 160 0
-9310 3668 0
-9310 161 0
-9311 3669 0
-9311 162 0
-9312 3670 0
-9312 163 0
-9313 3671 0
-9313 164 0
-9314 3672 0
-9314 165 0
-9315 3673 0
-9315 166 0
-9316 3674 0
-9316 167 0
-9317 3675 0
-9317 168 0
9304 9305 9306 9307 9308 9309 9310 9311 9312 9313 9314 9315 9316 9317 0
-9318 3662 0
-9318 169 0
-9319 3663 0
-9319 170 0
-9320 3664 0
-9320 171 0
-9321 3665 0
-9321 172 0
-9322 3666 0
-9322 173 0
-9323 3667 0
-9323 174 0
-9324 3668 0
-9324 175 0
-9325 3669 0
-9325 176 0
-9326 3670 0
-9326 177 0
-9327 3671 0
-9327 178 0
-9328 3672 0
-9328 179 0
-9329 3673 0
-9329 180 0
-9330 3674 0
-9330 181 0
-9331 3675 0
-9331 182 0
9318 9319 9320 9321 9322 9323 9324 9325 9326 9327 9328 9329 9330 9331 0
-9332 3662 0
-9332 183 0
-9333 3663 0
-9333 184 0
-9334 3664 0
-9334 185 0
-9335 3665 0
-9335 186 0
-9336 3666 0
-9336 187 0
-9337 3667 0
-9337 188 0
-9338 3668 0
-9338 189 0
-9339 3669 0
-9339 190 0
-9340 3670 0
-9340 191 0
-9341 3671 0
-9341 192 0
-9342 3672 0
-9342 193 0
-9343 3673 0
-9343 194 0
-9344 3674 0
-9344 195 0
-9345 3675 0
-9345 196 0
9332 9333 9334 9335 9336 9337 9338 9339 9340 9341 9342 9343 9344 9345 0
-9346 3715 0
-9346 169 0
-9347 3716 0
-9347 170 0
-9348 3717 0
-9348 171 0
-9349 3718 0
-9349 172 0
-9350 3719 0
-9350 173 0
-9351 3720 0
-9351 174 0
-9352 3721 0
-9352 175 0
-9353 3722 0
-9353 176 0
-9354 3723 0
-9354 177 0
-9355 3724 0
-9355 178 0
-9356 3725 0
-9356 179 0
-9357 3726 0
-9357 180 0
-9358 3727 0
-9358 181 0
-9359 3728 0
-9359 182 0
9346 9347 9348 9349 9350 9351 9352 9353 9354 9355 9356 9357 9358 9359 0
-9360 3715 0
-9360 183 0
-9361 3716 0
-9361 184 0
-9362 3717 0
-9362 185 0
-9363 3718 0
-9363 186 0
-9364 3719 0
-9364 187 0
-9365 3720 0
-9365 188 0
-9366 3721 0
-9366 189 0
-9367 3722 0
-9367 190 0
-9368 3723 0
-9368 191 0
-9369 3724 0
-9369 192 0
-9370 3725 0
-9370 193 0
-9371 3726 0
-9371 194 0
-9372 3727 0
-9372 195 0
-9373 3728 0
-9373 196 0
9360 9361 9362 9363 9364 9365 9366 9367 9368 9369 9370 9371 9372 9373 0
-9374 3768 0
-9374 183 0
-9375 3769 0
-9375 184 0
-9376 3770 0
-9376 185 0
-9377 3771 0
-9377 186 0
-9378 3772 0
-9378 187 0
-9379 3773 0
-9379 188 0
-9380 3774 0
-9380 189 0
-9381 3775 0
-9381 190 0
-9382 3776 0
-9382 191 0
-9383 3777 0
-9383 192 0
-9384 3778 0
-9384 193 0
-9385 3779 0
-9385 194 0
-9386 3780 0
-9386 195 0
-9387 3781 0
-9387 196 0
9374 9375 9376 9377 9378 9379 9380 9381 9382 9383 9384 9385 9386 9387 0
-9388 3874 0
-9388 57 0
-9389 3875 0
-9389 58 0
-9390 3876 0
-9390 59 0
-9391 3877 0
-9391 60 0
-9392 3878 0
-9392 61 0
-9393 3879 0
-9393 62 0
-9394 3880 0
-9394 63 0
-9395 3881 0
-9395 64 0
-9396 3882 0
-9396 65 0
-9397 3883 0
-9397 66 0
-9398 3884 0
-9398 67 0
-9399 3885 0
-9399 68 0
-9400 3886 0
-9400 69 0
-9401 3887 0
-9401 70 0
9388 9389 9390 9391 9392 9393 9394 9395 9396 9397 9398 9399 9400 9401 0
-9402 3874 0
-9402 71 0
-9403 3875 0
-9403 72 0
-9404 3876 0
-9404 73 0
-9405 3877 0
-9405 74 0
-9406 3878 0
-9406 75 0
-9407 3879 0
-9407 76 0
-9408 3880 0
-9408 77 0
-9409 3881 0
-9409 78 0
-9410 3882 0
-9410 79 0
-9411 3883 0
-9411 80 0
-9412 3884 0
-9412 81 0
-9413 3885 0
-9413 82 0
-9414 3886 0
-9414 83 0
-9415 3887 0
-9415 84 0
9402 9403 9404 9405 9406 9407 9408 9409 9410 9411 9412 9413 9414 9415 0
-9416 3874 0
-9416 85 0
-9417 3875 0
-9417 86 0
-9418 3876 0
-9418 87 0
-9419 3877 0
-9419 88 0
-9420 3878 0
-9420 89 0
-9421 3879 0
-9421 90 0
-9422 3880 0
-9422 91 0
-9423 3881 0
-9423 92 0
-9424 3882 0
-9424 93 0
-9425 3883 0
-9425 94 0
-9426 3884 0
-9426 95 0
-9427 3885 0
-9427 96 0
-9428 3886 0
-9428 97 0
-9429 3887 0
-9429 98 0
9416 9417 9418 9419 9420 9421 9422 9423 9424 9425 9426 9427 9428 9429 0
-9430 3874 0
-9430 99 0
-9431 3875 0
-9431 100 0
-9432 3876 0
-9432 101 0
-9433 3877 0
-9433 102 0
-9434 3878 0
-9434 103 0
-9435 3879 0
-9435 104 0
-9436 3880 0
-9436 105 0
-9437 3881 0
-9437 106 0
-9438 3882 0
-9438 107 0
-9439 3883 0
-9439 108 0
-9440 3884 0
-9440 109 0
-9441 3885 0
-9441 110 0
-9442 3886 0
-9442 111 0
-9443 3887 0
-9443 112 0
9430 9431 9432 9433 9434 9435 9436 9437 9438 9439 9440 9441 9442 9443 0
-9444 3874 0
-9444 113 0
-9445 3875 0
-9445 114 0
-9446 3876 0
-9446 115 0
-9447 3877 0
-9447 116 0
-9448 3878 0
-9448 117 0
-9449 3879 0
-9449 118 0
-9450 3880 0
-9450 119 0
-9451 3881 0
-9451 120 0
-9452 3882 0
-9452 121 0
-9453 3883 0
-9453 122 0
-9454 3884 0
-9454 123 0
-9455 3885 0
-9455 124 0
-9456 3886 0
-9456 125 0
-9457 3887 0
-9457 126 0
9444 9445 9446 9447 9448 9449 9450 9451 9452 9453 9454 9455 9456 9457 0
-9458 3874 0
-9458 127 0
-9459 3875 0
-9459 128 0
-9460 3876 0
-9460 129 0
-9461 3877 0
-9461 130 0
-9462 3878 0
-9462 131 0
-9463 3879 0
-9463 132 0
-9464 3880 0
-9464 133 0
-9465 3881 0
-9465 134 0
-9466 3882 0
-9466 135 0
-9467 3883 0
-9467 136 0
-9468 3884 0
-9468 137 0
-9469 3885 0
-9469 138 0
-9470 3886 0
-9470 139 0
-9471 3887 0
-9471 140 0
9458 9459 9460 9461 9462 9463 9464 9465 9466 9467 9468 9469 9470 9471 0
-9472 3874 0
-9472 141 0
-9473 3875 0
-9473 142 0
-9474 3876 0
-9474 143 0
-9475 3877 0
-9475 144 0
-9476 3878 0
-9476 145 0
-9477 3879 0
-9477 146 0
-9478 3880 0
-9478 147 0
-9479 3881 0
-9479 148 0
-9480 3882 0
-9480 149 0
-9481 3883 0
-9481 150 0
-9482 3884 0
-9482 151 0
-9483 3885 0
-9483 152 0
-9484 3886 0
-9484 153 0
-9485 3887 0
-9485 154 0
9472 9473 9474 9475 9476 9477 9478 9479 9480 9481 9482 9483 9484 9485 0
-9486 3874 0
-9486 155 0
-9487 3875 0
-9487 156 0
-9488 3876 0
-9488 157 0
-9489 3877 0
-9489 158 0
-9490 3878 0
-9490 159 0
-9491 3879 0
-9491 160 0
-9492 3880 0
-9492 161 0
-9493 3881 0
-9493 162 0
-9494 3882 0
-9494 163 0
-9495 3883 0
-9495 164 0
-9496 3884 0
-9496 165 0
-9497 3885 0
-9497 166 0
-9498 3886 0
-9498 167 0
-9499 3887 0
-9499 168 0
9486 9487 9488 9489 9490 9491 9492 9493 9494 9495 9496 9497 9498 9499 0
-9500 3874 0
-9500 169 0
-9501 3875 0
-9501 170 0
-9502 3876 0
-9502 171 0
-9503 3877 0
-9503 172 0
-9504 3878 0
-9504 173 0
-9505 3879 0
-9505 174 0
-9506 3880 0
-9506 175 0
-9507 3881 0
-9507 176 0
-9508 3882 0
-9508 177 0
-9509 3883 0
-9509 178 0
-9510 3884 0
-9510 179 0
-9511 3885 0
-9511 180 0
-9512 3886 0
-9512 181 0
-9513 3887 0
-9513 182 0
9500 9501 9502 9503 9504 9505 9506 9507 9508 9509 9510 9511 9512 9513 0
-9514 3874 0
-9514 183 0
-9515 3875 0
-9515 184 0
-9516 3876 0
-9516 185 0
-9517 3877 0
-9517 186 0
-9518 3878 0
-9518 187 0
-9519 3879 0
-9519 188 0
-9520 3880 0
-9520 189 0
-9521 3881 0
-9521 190 0
-9522 3882 0
-9522 191 0
-9523 3883 0
-9523 192 0
-9524 3884 0
-9524 193 0
-9525 3885 0
-9525 194 0
-9526 3886 0
-9526 195 0
-9527 3887 0
-9527 196 0
9514 9515 9516 9517 9518 9519 9520 9521 9522 9523 9524 9525 9526 9527 0
-9528 3927 0
-9528 71 0
-9529 3928 0
-9529 72 0
-9530 3929 0
-9530 73 0
-9531 3930 0
-9531 74 0
-9532 3931 0
-9532 75 0
-9533 3932 0
-9533 76 0
-9534 3933 0
-9534 77 0
-9535 3934 0
-9535 78 0
-9536 3935 0
-9536 79 0
-9537 3936 0
-9537 80 0
-9538 3937 0
-9538 81 0
-9539 3938 0
-9539 82 0
-9540 3939 0
-9540 83 0
-9541 3940 0
-9541 84 0
9528 9529 9530 9531 9532 9533 9534 9535 9536 9537 9538 9539 9540 9541 0
-9542 3927 0
-9542 85 0
-9543 3928 0
-9543 86 0
-9544 3929 0
-9544 87 0
-9545 3930 0
-9545 88 0
-9546 3931 0
-9546 89 0
-9547 3932 0
-9547 90 0
-9548 3933 0
-9548 91 0
-9549 3934 0
-9549 92 0
-9550 3935 0
-9550 93 0
-9551 3936 0
-9551 94 0
-9552 3937 0
-9552 95 0
-9553 3938 0
-9553 96 0
-9554 3939 0
-9554 97 0
-9555 3940 0
-9555 98 0
9542 9543 9544 9545 9546 9547 9548 9549 9550 9551 9552 9553 9554 9555 0
-9556 3927 0
-9556 99 0
-9557 3928 0
-9557 100 0
-9558 3929 0
-9558 101 0
-9559 3930 0
-9559 102 0
-9560 3931 0
-9560 103 0
-9561 3932 0
-9561 104 0
-9562 3933 0
-9562 105 0
-9563 3934 0
-9563 106 0
-9564 3935 0
-9564 107 0
-9565 3936 0
-9565 108 0
-9566 3937 0
-9566 109 0
-9567 3938 0
-9567 110 0
-9568 3939 0
-9568 111 0
-9569 3940 0
-9569 112 0
9556 9557 9558 9559 9560 9561 9562 9563 9564 9565 9566 9567 9568 9569 0
-9570 3927 0
-9570 113 0
-9571 3928 0
-9571 114 0
-9572 3929 0
-9572 115 0
-9573 3930 0
-9573 116 0
-9574 3931 0
-9574 117 0
-9575 3932 0
-9575 118 0
-9576 3933 0
-9576 119 0
-9577 3934 0
-9577 120 0
-9578 3935 0
-9578 121 0
-9579 3936 0
-9579 122 0
-9580 3937 0
-9580 123 0
-9581 3938 0
-9581 124 0
-9582 3939 0
-9582 125 0
-9583 3940 0
-9583 126 0
9570 9571 9572 9573 9574 9575 9576 9577 9578 9579 9580 9581 9582 9583 0
-9584 3927 0
-9584 127 0
-9585 3928 0
-9585 128 0
-9586 3929 0
-9586 129 0
-9587 3930 0
-9587 130 0
-9588 3931 0
-9588 131 0
-9589 3932 0
-9589 132 0
-9590 3933 0
-9590 133 0
-9591 3934 0
-9591 134 0
-9592 3935 0
-9592 135 0
-9593 3936 0
-9593 136 0
-9594 3937 0
-9594 137 0
-9595 3938 0
-9595 138 0
-9596 3939 0
-9596 139 0
-9597 3940 0
-9597 140 0
9584 9585 9586 9587 9588 9589 9590 9591 9592 9593 9594 9595 9596 9597 0
-9598 3927 0
-9598 141 0
-9599 3928 0
-9599 142 0
-9600 3929 0
-9600 143 0
-9601 3930 0
-9601 144 0
-9602 3931 0
-9602 145 0
-9603 3932 0
-9603 146 0
-9604 3933 0
-9604 147 0
-9605 3934 0
-9605 148 0
-9606 3935 0
-9606 149 0
-9607 3936 0
-9607 150 0
-9608 3937 0
-9608 151 0
-9609 3938 0
-9609 152 0
-9610 3939 0
-9610 153 0
-9611 3940 0
-9611 154 0
9598 9599 9600 9601 9602 9603 9604 9605 9606 9607 9608 9609 9610 9611 0
-9612 3927 0
-9612 155 0
-9613 3928 0
-9613 156 0
-9614 3929 0
-9614 157 0
-9615 3930 0
-9615 158 0
-9616 3931 0
-9616 159 0
-9617 3932 0
-9617 160 0
-9618 3933 0
-9618 161 0
-9619 3934 0
-9619 162 0
-9620 3935 0
-9620 163 0
-9621 3936 0
-9621 164 0
-9622 3937 0
-9622 165 0
-9623 3938 0
-9623 166 0
-9624 3939 0
-9624 167 0
-9625 3940 0
-9625 168 0
9612 9613 9614 9615 9616 9617 9618 9619 9620 9621 9622 9623 9624 9625 0
-9626 3927 0
-9626 169 0
-9627 3928 0
-9627 170 0
-9628 3929 0
-9628 171 0
-9629 3930 0
-9629 172 0
-9630 3931 0
-9630 173 0
-9631 3932 0
-9631 174 0
-9632 3933 0
-9632 175 0
-9633 3934 0
-9633 176 0
-9634 3935 0
-9634 177 0
-9635 3936 0
-9635 178 0
-9636 3937 0
-9636 179 0
-9637 3938 0
-9637 180 0
-9638 3939 0
-9638 181 0
-9639 3940 0
-9639 182 0
9626 9627 9628 9629 9630 9631 9632 9633 9634 9635 9636 9637 9638 9639 0
-9640 3927 0
-9640 183 0
-9641 3928 0
-9641 184 0
-9642 3929 0
-9642 185 0
-9643 3930 0
-9643 186 0
-9644 3931 0
-9644 187 0
-9645 3932 0
-9645 188 0
-9646 3933 0
-9646 189 0
-9647 3934 0
-9647 190 0
-9648 3935 0
-9648 191 0
-9649 3936 0
-9649 192 0
-9650 3937 0
-9650 193 0
-9651 3938 0
-9651 194 0
-9652 3939 0
-9652 195 0
-9653 3940 0
-9653 196 0
9640 9641 9642 9643 9644 9645 9646 9647 9648 9649 9650 9651 9652 9653 0
-9654 3980 0
-9654 85 0
-9655 3981 0
-9655 86 0
-9656 3982 0
-9656 87 0
-9657 3983 0
-9657 88 0
-9658 3984 0
-9658 89 0
-9659 3985 0
-9659 90 0
-9660 3986 0
-9660 91 0
-9661 3987 0
-9661 92 0
-9662 3988 0
-9662 93 0
-9663 3989 0
-9663 94 0
-9664 3990 0
-9664 95 0
-9665 3991 0
-9665 96 0
-9666 3992 0
-9666 97 0
-9667 3993 0
-9667 98 0
9654 9655 9656 9657 9658 9659 9660 9661 9662 9663 9664 9665 9666 9667 0
-9668 3980 0
-9668 99 0
-9669 3981 0
-9669 100 0
-9670 3982 0
-9670 101 0
-9671 3983 0
-9671 102 0
-9672 3984 0
-9672 103 0
-9673 3985 0
-9673 104 0
-9674 3986 0
-9674 105 0
-9675 3987 0
-9675 106 0
-9676 3988 0
-9676 107 0
-9677 3989 0
-9677 108 0
-9678 3990 0
-9678 109 0
-9679 3991 0
-9679 110 0
-9680 3992 0
-9680 111 0
-9681 3993 0
-9681 112 0
9668 9669 9670 9671 9672 9673 9674 9675 9676 9677 9678 9679 9680 9681 0
-9682 3980 0
-9682 113 0
-9683 3981 0
-9683 114 0
-9684 3982 0
-9684 115 0
-9685 3983 0
-9685 116 0
-9686 3984 0
-9686 117 0
-9687 3985 0
-9687 118 0
-9688 3986 0
-9688 119 0
-9689 3987 0
-9689 120 0
-9690 3988 0
-9690 121 0
-9691 3989 0
-9691 122 0
-9692 3990 0
-9692 123 0
-9693 3991 0
-9693 124 0
-9694 3992 0
-9694 125 0
-9695 3993 0
-9695 126 0
9682 9683 9684 9685 9686 9687 9688 9689 9690 9691 9692 9693 9694 9695 0
-9696 3980 0
-9696 127 0
-9697 3981 0
-9697 128 0
-9698 3982 0
-9698 129 0
-9699 3983 0
-9699 130 0
-9700 3984 0
-9700 131 0
-9701 3985 0
-9701 132 0
-9702 3986 0
-9702 133 0
-9703 3987 0
-9703 134 0
-9704 3988 0
-9704 135 0
-9705 3989 0
-9705 136 0
-9706 3990 0
-9706 137 0
-9707 3991 0
-9707 138 0
-9708 3992 0
-9708 139 0
-9709 3993 0
-9709 140 0
9696 9697 9698 9699 9700 9701 9702 9703 9704 9705 9706 9707 9708 9709 0
-9710 3980 0
-9710 141 0
-9711 3981 0
-9711 142 0
-9712 3982 0
-9712 143 0
-9713 3983 0
-9713 144 0
-9714 3984 0
-9714 145 0
-9715 3985 0
-9715 146 0
-9716 3986 0
-9716 147 0
-9717 3987 0
-9717 148 0
-9718 3988 0
-9718 149 0
-9719 3989 0
-9719 150 0
-9720 3990 0
-9720 151 0
-9721 3991 0
-9721 152 0
-9722 3992 0
-9722 153 0
-9723 3993 0
-9723 154 0
9710 9711 9712 9713 9714 9715 9716 9717 9718 9719 9720 9721 9722 9723 0
-9724 3980 0
-9724 155 0
-9725 3981 0
-9725 156 0
-9726 3982 0
-9726 157 0
-9727 3983 0
-9727 158 0
-9728 3984 0
-9728 159 0
-9729 3985 0
-9729 160 0
-9730 3986 0
-9730 161 0
-9731 3987 0
-9731 162 0
-9732 3988 0
-9732 163 0
-9733 3989 0
-9733 164 0
-9734 3990 0
-9734 165 0
-9735 3991 0
-9735 166 0
-9736 3992 0
-9736 167 0
-9737 3993 0
-9737 168 0
9724 9725 9726 9727 9728 9729 9730 9731 9732 9733 9734 9735 9736 9737 0
-9738 3980 0
-9738 169 0
-9739 3981 0
-9739 170 0
-9740 3982 0
-9740 171 0
-9741 3983 0
-9741 172 0
-9742 3984 0
-9742 173 0
-9743 3985 0
-9743 174 0
-9744 3986 0
-9744 175 0
-9745 3987 0
-9745 176 0
-9746 3988 0
-9746 177 0
-9747 3989 0
-9747 178 0
-9748 3990 0
-9748 179 0
-9749 3991 0
-9749 180 0
-9750 3992 0
-9750 181 0
-9751 3993 0
-9751 182 0
9738 9739 9740 9741 9742 9743 9744 9745 9746 9747 9748 9749 9750 9751 0
-9752 3980 0
-9752 183 0
-9753 3981 0
-9753 184 0
-9754 3982 0
-9754 185 0
-9755 3983 0
-9755 186 0
-9756 3984 0
-9756 187 0
-9757 3985 0
-9757 188 0
-9758 3986 0
-9758 189 0
-9759 3987 0
-9759 190 0
-9760 3988 0
-9760 191 0
-9761 3989 0
-9761 192 0
-9762 3990 0
-9762 193 0
-9763 3991 0
-9763 194 0
-9764 3992 0
-9764 195 0
-9765 3993 0
-9765 196 0
9752 9753 9754 9755 9756 9757 9758 9759 9760 9761 9762 9763 9764 9765 0
-9766 4033 0
-9766 99 0
-9767 4034 0
-9767 100 0
-9768 4035 0
-9768 101 0
-9769 4036 0
-9769 102 0
-9770 4037 0
-9770 103 0
-9771 4038 0
-9771 104 0
-9772 4039 0
-9772 105 0
-9773 4040 0
-9773 106 0
-9774 4041 0
-9774 107 0
-9775 4042 0
-9775 108 0
-9776 4043 0
-9776 109 0
-9777 4044 0
-9777 110 0
-9778 4045 0
-9778 111 0
-9779 4046 0
-9779 112 0
9766 9767 9768 9769 9770 9771 9772 9773 9774 9775 9776 9777 9778 9779 0
-9780 4033 0
-9780 113 0
-9781 4034 0
-9781 114 0
-9782 4035 0
-9782 115 0
-9783 4036 0
-9783 116 0
-9784 4037 0
-9784 117 0
-9785 4038 0
-9785 118 0
-9786 4039 0
-9786 119 0
-9787 4040 0
-9787 120 0
-9788 4041 0
-9788 121 0
-9789 4042 0
-9789 122 0
-9790 4043 0
-9790 123 0
-9791 4044 0
-9791 124 0
-9792 4045 0
-9792 125 0
-9793 4046 0
-9793 126 0
9780 9781 9782 9783 9784 9785 9786 9787 9788 9789 9790 9791 9792 9793 0
-9794 4033 0
-9794 127 0
-9795 4034 0
-9795 128 0
-9796 4035 0
-9796 129 0
-9797 4036 0
-9797 130 0
-9798 4037 0
-9798 131 0
-9799 4038 0
-9799 132 0
-9800 4039 0
-9800 133 0
-9801 4040 0
-9801 134 0
-9802 4041 0
-9802 135 0
-9803 4042 0
-9803 136 0
-9804 4043 0
-9804 137 0
-9805 4044 0
-9805 138 0
-9806 4045 0
-9806 139 0
-9807 4046 0
-9807 140 0
9794 9795 9796 9797 9798 9799 9800 9801 9802 9803 9804 9805 9806 9807 0
-9808 4033 0
-9808 141 0
-9809 4034 0
-9809 142 0
-9810 4035 0
-9810 143 0
-9811 4036 0
-9811 144 0
-9812 4037 0
-9812 145 0
-9813 4038 0
-9813 146 0
-9814 4039 0
-9814 147 0
-9815 4040 0
-9815 148 0
-9816 4041 0
-9816 149 0
-9817 4042 0
-9817 150 0
-9818 4043 0
-9818 151 0
-9819 4044 0
-9819 152 0
-9820 4045 0
-9820 153 0
-9821 4046 0
-9821 154 0
9808 9809 9810 9811 9812 9813 9814 9815 9816 9817 9818 9819 9820 9821 0
-9822 4033 0
-9822 155 0
-9823 4034 0
-9823 156 0
-9824 4035 0
-9824 157 0
-9825 4036 0
-9825 158 0
-9826 4037 0
-9826 159 0
-9827 4038 0
-9827 160 0
-9828 4039 0
-9828 161 0
-9829 4040 0
-9829 162 0
-9830 4041 0
-9830 163 0
-9831 4042 0
-9831 164 0
-9832 4043 0
-9832 165 0
-9833 4044 0
-9833 166 0
-9834 4045 0
-9834 167 0
-9835 4046 0
-9835 168 0
9822 9823 9824 9825 9826 9827 9828 9829 9830 9831 9832 9833 9834 9835 0
-9836 4033 0
-9836 169 0
-9837 4034 0
-9837 170 0
-9838 4035 0
-9838 171 0
-9839 4036 0
-9839 172 0
-9840 4037 0
-9840 173 0
-9841 4038 0
-9841 174 0
-9842 4039 0
-9842 175 0
-9843 4040 0
-9843 176 0
-9844 4041 0
-9844 177 0
-9845 4042 0
-9845 178 0
-9846 4043 0
-9846 179 0
-9847 4044 0
-9847 180 0
-9848 4045 0
-9848 181 0
-9849 4046 0
-9849 182 0
9836 9837 9838 9839 9840 9841 9842 9843 9844 9845 9846 9847 9848 9849 0
-9850 4033 0
-9850 183 0
-9851 4034 0
-9851 184 0
-9852 4035 0
-9852 185 0
-9853 4036 0
-9853 186 0
-9854 4037 0
-9854 187 0
-9855 4038 0
-9855 188 0
-9856 4039 0
-9856 189 0
-9857 4040 0
-9857 190 0
-9858 4041 0
-9858 191 0
-9859 4042 0
-9859 192 0
-9860 4043 0
-9860 193 0
-9861 4044 0
-9861 194 0
-9862 4045 0
-9862 195 0
-9863 4046 0
-9863 196 0
9850 9851 9852 9853 9854 9855 9856 9857 9858 9859 9860 9861 9862 9863 0
-9864 4086 0
-9864 113 0
-9865 4087 0
-9865 114 0
-9866 4088 0
-9866 115 0
-9867 4089 0
-9867 116 0
-9868 4090 0
-9868 117 0
-9869 4091 0
-9869 118 0
-9870 4092 0
-9870 119 0
-9871 4093 0
-9871 120 0
-9872 4094 0
-9872 121 0
-9873 4095 0
-9873 122 0
-9874 4096 0
-9874 123 0
-9875 4097 0
-9875 124 0
-9876 4098 0
-9876 125 0
-9877 4099 0
-9877 126 0
9864 9865 9866 9867 9868 9869 9870 9871 9872 9873 9874 9875 9876 9877 0
-9878 4086 0
-9878 127 0
-9879 4087 0
-9879 128 0
-9880 4088 0
-9880 129 0
-9881 4089 0
-9881 130 0
-9882 4090 0
-9882 131 0
-9883 4091 0
-9883 132 0
-9884 4092 0
-9884 133 0
-9885 4093 0
-9885 134 0
-9886 4094 0
-9886 135 0
-9887 4095 0
-9887 136 0
-9888 4096 0
-9888 137 0
-9889 4097 0
-9889 138 0
-9890 4098 0
-9890 139 0
-9891 4099 0
-9891 140 0
9878 9879 9880 9881 9882 9883 9884 9885 9886 9887 9888 9889 9890 9891 0
-9892 4086 0
-9892 141 0
-9893 4087 0
-9893 142 0
-9894 4088 0
-9894 143 0
-9895 4089 0
-9895 144 0
-9896 4090 0
-9896 145 0
-9897 4091 0
-9897 146 0
-9898 4092 0
-9898 147 0
-9899 4093 0
-9899 148 0
-9900 4094 0
-9900 149 0
-9901 4095 0
-9901 150 0
-9902 4096 0
-9902 151 0
-9903 4097 0
-9903 152 0
-9904 4098 0
-9904 153 0
-9905 4099 0
-9905 154 0
9892 9893 9894 9895 9896 9897 9898 9899 9900 9901 9902 9903 9904 9905 0
-9906 4086 0
-9906 155 0
-9907 4087 0
-9907 156 0
-9908 4088 0
-9908 157 0
-9909 4089 0
-9909 158 0
-9910 4090 0
-9910 159 0
-9911 4091 0
-9911 160 0
-9912 4092 0
-9912 161 0
-9913 4093 0
-9913 162 0
-9914 4094 0
-9914 163 0
-9915 4095 0
-9915 164 0
-9916 4096 0
-9916 165 0
-9917 4097 0
-9917 166 0
-9918 4098 0
-9918 167 0
-9919 4099 0
-9919 168 0
9906 9907 9908 9909 9910 9911 9912 9913 9914 9915 9916 9917 9918 9919 0
-9920 4086 0
-9920 169 0
-9921 4087 0
-9921 170 0
-9922 4088 0
-9922 171 0
-9923 4089 0
-9923 172 0
-9924 4090 0
-9924 173 0
-9925 4091 0
-9925 174 0
-9926 4092 0
-9926 175 0
-9927 4093 0
-9927 176 0
-9928 4094 0
-9928 177 0
-9929 4095 0
-9929 178 0
-9930 4096 0
-9930 179 0
-9931 4097 0
-9931 180 0
-9932 4098 0
-9932 181 0
-9933 4099 0
-9933 182 0
9920 9921 9922 9923 9924 9925 9926 9927 9928 9929 9930 9931 9932 9933 0
-9934 4086 0
-9934 183 0
-9935 4087 0
-9935 184 0
-9936 4088 0
-9936 185 0
-9937 4089 0
-9937 186 0
-9938 4090 0
-9938 187 0
-9939 4091 0
-9939 188 0
-9940 4092 0
-9940 189 0
-9941 4093 0
-9941 190 0
-9942 4094 0
-9942 191 0
-9943 4095 0
-9943 192 0
-9944 4096 0
-9944 193 0
-9945 4097 0
-9945 194 0
-9946 4098 0
-9946 195 0
-9947 4099 0
-9947 196 0
9934 9935 9936 9937 9938 9939 9940 9941 9942 9943 9944 9945 9946 9947 0
-9948 4139 0
-9948 127 0
-9949 4140 0
-9949 128 0
-9950 4141 0
-9950 129 0
-9951 4142 0
-9951 130 0
-9952 4143 0
-9952 131 0
-9953 4144 0
-9953 132 0
-9954 4145 0
-9954 133 0
-9955 4146 0
-9955 134 0
-9956 4147 0
-9956 135 0
-9957 4148 0
-9957 136 0
-9958 4149 0
-9958 137 0
-9959 4150 0
-9959 138 0
-9960 4151 0
-9960 139 0
-9961 4152 0
-9961 140 0
9948 9949 9950 9951 9952 9953 9954 9955 9956 9957 9958 9959 9960 9961 0
-9962 4139 0
-9962 141 0
-9963 4140 0
-9963 142 0
-9964 4141 0
-9964 143 0
-9965 4142 0
-9965 144 0
-9966 4143 0
-9966 145 0
-9967 4144 0
-9967 146 0
-9968 4145 0
-9968 147 0
-9969 4146 0
-9969 148 0
-9970 4147 0
-9970 149 0
-9971 4148 0
-9971 150 0
-9972 4149 0
-9972 151 0
-9973 4150 0
-9973 152 0
-9974 4151 0
-9974 153 0
-9975 4152 0
-9975 154 0
9962 9963 9964 9965 9966 9967 9968 9969 9970 9971 9972 9973 9974 9975 0
-9976 4139 0
-9976 155 0
-9977 4140 0
-9977 156 0
-9978 4141 0
-9978 157 0
-9979 4142 0
-9979 158 0
-9980 4143 0
-9980 159 0
-9981 4144 0
-9981 160 0
-9982 4145 0
-9982 161 0
-9983 4146 0
-9983 162 0
-9984 4147 0
-9984 163 0
-9985 4148 0
-9985 164 0
-9986 4149 0
-9986 165 0
-9987 4150 0
-9987 166 0
-9988 4151 0
-9988 167 0
-9989 4152 0
-9989 168 0
9976 9977 9978 9979 9980 9981 9982 9983 9984 9985 9986 9987 9988 9989 0
-9990 4139 0
-9990 169 0
-9991 4140 0
-9991 170 0
-9992 4141 0
-9992 171 0
-9993 4142 0
-9993 172 0
-9994 4143 0
-9994 173 0
-9995 4144 0
-9995 174 0
-9996 4145 0
-9996 175 0
-9997 4146 0
-9997 176 0
-9998 4147 0
-9998 177 0
-9999 4148 0
-9999 178 0
-10000 4149 0
-10000 179 0
-10001 4150 0
-10001 180 0
-10002 4151 0
-10002 181 0
-10003 4152 0
-10003 182 0
9990 9991 9992 9993 9994 9995 9996 9997 9998 9999 10000 10001 10002 10003 0
-10004 4139 0
-10004 183 0
-10005 4140 0
-10005 184 0
-10006 4141 0
-10006 185 0
-10007 4142 0
-10007 186 0
-10008 4143 0
-10008 187 0
-10009 4144 0
-10009 188 0
-10010 4145 0
-10010 189 0
-10011 4146 0
-10011 190 0
-10012 4147 0
-10012 191 0
-10013 4148 0
-10013 192 0
-10014 4149 0
-10014 193 0
-10015 4150 0
-10015 194 0
-10016 4151 0
-10016 195 0
-10017 4152 0
-10017 196 0
10004 10005 10006 10007 10008 10009 10010 10011 10012 10013 10014 10015 10016 10017 0
-10018 4192 0
-10018 141 0
-10019 4193 0
-10019 142 0
-10020 4194 0
-10020 143 0
-10021 4195 0
-10021 144 0
-10022 4196 0
-10022 145 0
-10023 4197 0
-10023 146 0
-10024 4198 0
-10024 147 0
-10025 4199 0
-10025 148 0
-10026 4200 0
-10026 149 0
-10027 4201 0
-10027 150 0
-10028 4202 0
-10028 151 0
-10029 4203 0
-10029 152 0
-10030 4204 0
-10030 153 0
-10031 4205 0
-10031 154 0
10018 10019 10020 10021 10022 10023 10024 10025 10026 10027 10028 10029 10030 10031 0
-10032 4192 0
-10032 155 0
-10033 4193 0
-10033 156 0
-10034 4194 0
-10034 157 0
-10035 4195 0
-10035 158 0
-10036 4196 0
-10036 159 0
-10037 4197 0
-10037 160 0
-10038 4198 0
-10038 161 0
-10039 4199 0
-10039 162 0
-10040 4200 0
-10040 163 0
-10041 4201 0
-10041 164 0
-10042 4202 0
-10042 165 0
-10043 4203 0
-10043 166 0
-10044 4204 0
-10044 167 0
-10045 4205 0
-10045 168 0
10032 10033 10034 10035 10036 10037 10038 10039 10040 10041 10042 10043 10044 10045 0
-10046 4192 0
-10046 169 0
-10047 4193 0
-10047 170 0
-10048 4194 0
-10048 171 0
-10049 4195 0
-10049 172 0
-10050 4196 0
-10050 173 0
-10051 4197 0
-10051 174 0
-10052 4198 0
-10052 175 0
-10053 4199 0
-10053 176 0
-10054 4200 0
-10054 177 0
-10055 4201 0
-10055 178 0
-10056 4202 0
-10056 179 0
-10057 4203 0
-10057 180 0
-10058 4204 0
-10058 181 0
-10059 4205 0
-10059 182 0
10046 10047 10048 10049 10050 10051 10052 10053 10054 10055 10056 10057 10058 10059 0
-10060 4192 0
-10060 183 0
-10061 4193 0
-10061 184 0
-10062 4194 0
-10062 185 0
-10063 4195 0
-10063 186 0
-10064 4196 0
-10064 187 0
-10065 4197 0
-10065 188 0
-10066 4198 0
-10066 189 0
-10067 4199 0
-10067 190 0
-10068 4200 0
-10068 191 0
-10069 4201 0
-10069 192 0
-10070 4202 0
-10070 193 0
-10071 4203 0
-10071 194 0
-10072 4204 0
-10072 195 0
-10073 4205 0
-10073 196 0
10060 10061 10062 10063 10064 10065 10066 10067 10068 10069 10070 10071 10072 10073 0
-10074 4245 0
-10074 155 0
-10075 4246 0
-10075 156 0
-10076 4247 0
-10076 157 0
-10077 4248 0
-10077 158 0
-10078 4249 0
-10078 159 0
-10079 4250 0
-10079 160 0
-10080 4251 0
-10080 161 0
-10081 4252 0
-10081 162 0
-10082 4253 0
-10082 163 0
-10083 4254 0
-10083 164 0
-10084 4255 0
-10084 165 0
-10085 4256 0
-10085 166 0
-10086 4257 0
-10086 167 0
-10087 4258 0
-10087 168 0
10074 10075 10076 10077 10078 10079 10080 10081 10082 10083 10084 10085 10086 10087 0
-10088 4245 0
-10088 169 0
-10089 4246 0
-10089 170 0
-10090 4247 0
-10090 171 0
-10091 4248 0
-10091 172 0
-10092 4249 0
-10092 173 0
-10093 4250 0
-10093 174 0
-10094 4251 0
-10094 175 0
-10095 4252 0
-10095 176 0
-10096 4253 0
-10096 177 0
-10097 4254 0
-10097 178 0
-10098 4255 0
-10098 179 0
-10099 4256 0
-10099 180 0
-10100 4257 0
-10100 181 0
-10101 4258 0
-10101 182 0
10088 10089 10090 10091 10092 10093 10094 10095 10096 10097 10098 10099 10100 10101 0
-10102 4245 0
-10102 183 0
-10103 4246 0
-10103 184 0
-10104 4247 0
-10104 185 0
-10105 4248 0
-10105 186 0
-10106 4249 0
-10106 187 0
-10107 4250 0
-10107 188 0
-10108 4251 0
-10108 189 0
-10109 4252 0
-10109 190 0
-10110 4253 0
-10110 191 0
-10111 4254 0
-10111 192 0
-10112 4255 0
-10112 193 0
-10113 4256 0
-10113 194 0
-10114 4257 0
-10114 195 0
-10115 4258 0
-10115 196 0
10102 10103 10104 10105 10106 10107 10108 10109 10110 10111 10112 10113 10114 10115 0
-10116 4298 0
-10116 169 0
-10117 4299 0
-10117 170 0
-10118 4300 0
-10118 171 0
-10119 4301 0
-10119 172 0
-10120 4302 0
-10120 173 0
-10121 4303 0
-10121 174 0
-10122 4304 0
-10122 175 0
-10123 4305 0
-10123 176 0
-10124 4306 0
-10124 177 0
-10125 4307 0
-10125 178 0
-10126 4308 0
-10126 179 0
-10127 4309 0
-10127 180 0
-10128 4310 0
-10128 181 0
-10129 4311 0
-10129 182 0
10116 10117 10118 10119 10120 10121 10122 10123 10124 10125 10126 10127 10128 10129 0
-10130 4298 0
-10130 183 0
-10131 4299 0
-10131 184 0
-10132 4300 0
-10132 185 0
-10133 4301 0
-10133 186 0
-10134 4302 0
-10134 187 0
-10135 4303 0
-10135 188 0
-10136 4304 0
-10136 189 0
-10137 4305 0
-10137 190 0
-10138 4306 0
-10138 191 0
-10139 4307 0
-10139 192 0
-10140 4308 0
-10140 193 0
-10141 4309 0
-10141 194 0
-10142 4310 0
-10142 195 0
-10143 4311 0
-10143 196 0
10130 10131 10132 10133 10134 10135 10136 10137 10138 10139 10140 10141 10142 10143 0
-10144 4351 0
-10144 183 0
-10145 4352 0
-10145 184 0
-10146 4353 0
-10146 185 0
-10147 4354 0
-10147 186 0
-10148 4355 0
-10148 187 0
-10149 4356 0
-10149 188 0
-10150 4357 0
-10150 189 0
-10151 4358 0
-10151 190 0
-10152 4359 0
-10152 191 0
-10153 4360 0
-10153 192 0
-10154 4361 0
-10154 193 0
-10155 4362 0
-10155 194 0
-10156 4363 0
-10156 195 0
-10157 4364 0
-10157 196 0
10144 10145 10146 10147 10148 10149 10150 10151 10152 10153 10154 10155 10156 10157 0
-10158 4457 0
-10158 71 0
-10159 4458 0
-10159 72 0
-10160 4459 0
-10160 73 0
-10161 4460 0
-10161 74 0
-10162 4461 0
-10162 75 0
-10163 4462 0
-10163 76 0
-10164 4463 0
-10164 77 0
-10165 4464 0
-10165 78 0
-10166 4465 0
-10166 79 0
-10167 4466 0
-10167 80 0
-10168 4467 0
-10168 81 0
-10169 4468 0
-10169 82 0
-10170 4469 0
-10170 83 0
-10171 4470 0
-10171 84 0
10158 10159 10160 10161 10162 10163 10164 10165 10166 10167 10168 10169 10170 10171 0
-10172 4457 0
-10172 85 0
-10173 4458 0
-10173 86 0
-10174 4459 0
-10174 87 0
-10175 4460 0
-10175 88 0
-10176 4461 0
-10176 89 0
-10177 4462 0
-10177 90 0
-10178 4463 0
-10178 91 0
-10179 4464 0
-10179 92 0
-10180 4465 0
-10180 93 0
-10181 4466 0
-10181 94 0
-10182 4467 0
-10182 95 0
-10183 4468 0
-10183 96 0
-10184 4469 0
-10184 97 0
-10185 4470 0
-10185 98 0
10172 10173 10174 10175 10176 10177 10178 10179 10180 10181 10182 10183 10184 10185 0
-10186 4457 0
-10186 99 0
-10187 4458 0
-10187 100 0
-10188 4459 0
-10188 101 0
-10189 4460 0
-10189 102 0
-10190 4461 0
-10190 103 0
-10191 4462 0
-10191 104 0
-10192 4463 0
-10192 105 0
-10193 4464 0
-10193 106 0
-10194 4465 0
-10194 107 0
-10195 4466 0
-10195 108 0
-10196 4467 0
-10196 109 0
-10197 4468 0
-10197 110 0
-10198 4469 0
-10198 111 0
-10199 4470 0
-10199 112 0
10186 10187 10188 10189 10190 10191 10192 10193 10194 10195 10196 10197 10198 10199 0
-10200 4457 0
-10200 113 0
-10201 4458 0
-10201 114 0
-10202 4459 0
-10202 115 0
-10203 4460 0
-10203 116 0
-10204 4461 0
-10204 117 0
-10205 4462 0
-10205 118 0
-10206 4463 0
-10206 119 0
-10207 4464 0
-10207 120 0
-10208 4465 0
-10208 121 0
-10209 4466 0
-10209 122 0
-10210 4467 0
-10210 123 0
-10211 4468 0
-10211 124 0
-10212 4469 0
-10212 125 0
-10213 4470 0
-10213 126 0
10200 10201 10202 10203 10204 10205 10206 10207 10208 10209 10210 10211 10212 10213 0
-10214 4457 0
-10214 127 0
-10215 4458 0
-10215 128 0
-10216 4459 0
-10216 129 0
-10217 4460 0
-10217 130 0
-10218 4461 0
-10218 131 0
-10219 4462 0
-10219 132 0
-10220 4463 0
-10220 133 0
-10221 4464 0
-10221 134 0
-10222 4465 0
-10222 135 0
-10223 4466 0
-10223 136 0
-10224 4467 0
-10224 137 0
-10225 4468 0
-10225 138 0
-10226 4469 0
-10226 139 0
-10227 4470 0
-10227 140 0
10214 10215 10216 10217 10218 10219 10220 10221 10222 10223 10224 10225 10226 10227 0
-10228 4457 0
-10228 141 0
-10229 4458 0
-10229 142 0
-10230 4459 0
-10230 143 0
-10231 4460 0
-10231 144 0
-10232 4461 0
-10232 145 0
-10233 4462 0
-10233 146 0
-10234 4463 0
-10234 147 0
-10235 4464 0
-10235 148 0
-10236 4465 0
-10236 149 0
-10237 4466 0
-10237 150 0
-10238 4467 0
-10238 151 0
-10239 4468 0
-10239 152 0
-10240 4469 0
-10240 153 0
-10241 4470 0
-10241 154 0
10228 10229 10230 10231 10232 10233 10234 10235 10236 10237 10238 10239 10240 10241 0
-10242 4457 0
-10242 155 0
-10243 4458 0
-10243 156 0
-10244 4459 0
-10244 157 0
-10245 4460 0
-10245 158 0
-10246 4461 0
-10246 159 0
-10247 4462 0
-10247 160 0
-10248 4463 0
-10248 161 0
-10249 4464 0
-10249 162 0
-10250 4465 0
-10250 163 0
-10251 4466 0
-10251 164 0
-10252 4467 0
-10252 165 0
-10253 4468 0
-10253 166 0
-10254 4469 0
-10254 167 0
-10255 4470 0
-10255 168 0
10242 10243 10244 10245 10246 10247 10248 10249 10250 10251 10252 10253 10254 10255 0
-10256 4457 0
-10256 169 0
-10257 4458 0
-10257 170 0
-10258 4459 0
-10258 171 0
-10259 4460 0
-10259 172 0
-10260 4461 0
-10260 173 0
-10261 4462 0
-10261 174 0
-10262 4463 0
-10262 175 0
-10263 4464 0
-10263 176 0
-10264 4465 0
-10264 177 0
-10265 4466 0
-10265 178 0
-10266 4467 0
-10266 179 0
-10267 4468 0
-10267 180 0
-10268 4469 0
-10268 181 0
-10269 4470 0
-10269 182 0
10256 10257 10258 10259 10260 10261 10262 10263 10264 10265 10266 10267 10268 10269 0
-10270 4457 0
-10270 183 0
-10271 4458 0
-10271 184 0
-10272 4459 0
-10272 185 0
-10273 4460 0
-10273 186 0
-10274 4461 0
-10274 187 0
-10275 4462 0
-10275 188 0
-10276 4463 0
-10276 189 0
-10277 4464 0
-10277 190 0
-10278 4465 0
-10278 191 0
-10279 4466 0
-10279 192 0
-10280 4467 0
-10280 193 0
-10281 4468 0
-10281 194 0
-10282 4469 0
-10282 195 0
-10283 4470 0
-10283 196 0
10270 10271 10272 10273 10274 10275 10276 10277 10278 10279 10280 10281 10282 10283 0
-10284 4510 0
-10284 85 0
-10285 4511 0
-10285 86 0
-10286 4512 0
-10286 87 0
-10287 4513 0
-10287 88 0
-10288 4514 0
-10288 89 0
-10289 4515 0
-10289 90 0
-10290 4516 0
-10290 91 0
-10291 4517 0
-10291 92 0
-10292 4518 0
-10292 93 0
-10293 4519 0
-10293 94 0
-10294 4520 0
-10294 95 0
-10295 4521 0
-10295 96 0
-10296 4522 0
-10296 97 0
-10297 4523 0
-10297 98 0
10284 10285 10286 10287 10288 10289 10290 10291 10292 10293 10294 10295 10296 10297 0
-10298 4510 0
-10298 99 0
-10299 4511 0
-10299 100 0
-10300 4512 0
-10300 101 0
-10301 4513 0
-10301 102 0
-10302 4514 0
-10302 103 0
-10303 4515 0
-10303 104 0
-10304 4516 0
-10304 105 0
-10305 4517 0
-10305 106 0
-10306 4518 0
-10306 107 0
-10307 4519 0
-10307 108 0
-10308 4520 0
-10308 109 0
-10309 4521 0
-10309 110 0
-10310 4522 0
-10310 111 0
-10311 4523 0
-10311 112 0
10298 10299 10300 10301 10302 10303 10304 10305 10306 10307 10308 10309 10310 10311 0
-10312 4510 0
-10312 113 0
-10313 4511 0
-10313 114 0
-10314 4512 0
-10314 115 0
-10315 4513 0
-10315 116 0
-10316 4514 0
-10316 117 0
-10317 4515 0
-10317 118 0
-10318 4516 0
-10318 119 0
-10319 4517 0
-10319 120 0
-10320 4518 0
-10320 121 0
-10321 4519 0
-10321 122 0
-10322 4520 0
-10322 123 0
-10323 4521 0
-10323 124 0
-10324 4522 0
-10324 125 0
-10325 4523 0
-10325 126 0
10312 10313 10314 10315 10316 10317 10318 10319 10320 10321 10322 10323 10324 10325 0
-10326 4510 0
-10326 127 0
-10327 4511 0
-10327 128 0
-10328 4512 0
-10328 129 0
-10329 4513 0
-10329 130 0
-10330 4514 0
-10330 131 0
-10331 4515 0
-10331 132 0
-10332 4516 0
-10332 133 0
-10333 4517 0
-10333 134 0
-10334 4518 0
-10334 135 0
-10335 4519 0
-10335 136 0
-10336 4520 0
-10336 137 0
-10337 4521 0
-10337 138 0
-10338 4522 0
-10338 139 0
-10339 4523 0
-10339 140 0
10326 10327 10328 10329 10330 10331 10332 10333 10334 10335 10336 10337 10338 10339 0
-10340 4510 0
-10340 141 0
-10341 4511 0
-10341 142 0
-10342 4512 0
-10342 143 0
-10343 4513 0
-10343 144 0
-10344 4514 0
-10344 145 0
-10345 4515 0
-10345 146 0
-10346 4516 0
-10346 147 0
-10347 4517 0
-10347 148 0
-10348 4518 0
-10348 149 0
-10349 4519 0
-10349 150 0
-10350 4520 0
-10350 151 0
-10351 4521 0
-10351 152 0
-10352 4522 0
-10352 153 0
-10353 4523 0
-10353 154 0
10340 10341 10342 10343 10344 10345 10346 10347 10348 10349 10350 10351 10352 10353 0
-10354 4510 0
-10354 155 0
-10355 4511 0
-10355 156 0
-10356 4512 0
-10356 157 0
-10357 4513 0
-10357 158 0
-10358 4514 0
-10358 159 0
-10359 4515 0
-10359 160 0
-10360 4516 0
-10360 161 0
-10361 4517 0
-10361 162 0
-10362 4518 0
-10362 163 0
-10363 4519 0
-10363 164 0
-10364 4520 0
-10364 165 0
-10365 4521 0
-10365 166 0
-10366 4522 0
-10366 167 0
-10367 4523 0
-10367 168 0
10354 10355 10356 10357 10358 10359 10360 10361 10362 10363 10364 10365 10366 10367 0
-10368 4510 0
-10368 169 0
-10369 4511 0
-10369 170 0
-10370 4512 0
-10370 171 0
-10371 4513 0
-10371 172 0
-10372 4514 0
-10372 173 0
-10373 4515 0
-10373 174 0
-10374 4516 0
-10374 175 0
-10375 4517 0
-10375 176 0
-10376 4518 0
-10376 177 0
-10377 4519 0
-10377 178 0
-10378 4520 0
-10378 179 0
-10379 4521 0
-10379 180 0
-10380 4522 0
-10380 181 0
-10381 4523 0
-10381 182 0
10368 10369 10370 10371 10372 10373 10374 10375 10376 10377 10378 10379 10380 10381 0
-10382 4510 0
-10382 183 0
-10383 4511 0
-10383 184 0
-10384 4512 0
-10384 185 0
-10385 4513 0
-10385 186 0
-10386 4514 0
-10386 187 0
-10387 4515 0
-10387 188 0
-10388 4516 0
-10388 189 0
-10389 4517 0
-10389 190 0
-10390 4518 0
-10390 191 0
-10391 4519 0
-10391 192 0
-10392 4520 0
-10392 193 0
-10393 4521 0
-10393 194 0
-10394 4522 0
-10394 195 0
-10395 4523 0
-10395 196 0
10382 10383 10384 10385 10386 10387 10388 10389 10390 10391 10392 10393 10394 10395 0
-10396 4563 0
-10396 99 0
-10397 4564 0
-10397 100 0
-10398 4565 0
-10398 101 0
-10399 4566 0
-10399 102 0
-10400 4567 0
-10400 103 0
-10401 4568 0
-10401 104 0
-10402 4569 0
-10402 105 0
-10403 4570 0
-10403 106 0
-10404 4571 0
-10404 107 0
-10405 4572 0
-10405 108 0
-10406 4573 0
-10406 109 0
-10407 4574 0
-10407 110 0
-10408 4575 0
-10408 111 0
-10409 4576 0
-10409 112 0
10396 10397 10398 10399 10400 10401 10402 10403 10404 10405 10406 10407 10408 10409 0
-10410 4563 0
-10410 113 0
-10411 4564 0
-10411 114 0
-10412 4565 0
-10412 115 0
-10413 4566 0
-10413 116 0
-10414 4567 0
-10414 117 0
-10415 4568 0
-10415 118 0
-10416 4569 0
-10416 119 0
-10417 4570 0
-10417 120 0
-10418 4571 0
-10418 121 0
-10419 4572 0
-10419 122 0
-10420 4573 0
-10420 123 0
-10421 4574 0
-10421 124 0
-10422 4575 0
-10422 125 0
-10423 4576 0
-10423 126 0
10410 10411 10412 10413 10414 10415 10416 10417 10418 10419 10420 10421 10422 10423 0
-10424 4563 0
-10424 127 0
-10425 4564 0
-10425 128 0
-10426 4565 0
-10426 129 0
-10427 4566 0
-10427 130 0
-10428 4567 0
-10428 131 0
-10429 4568 0
-10429 132 0
-10430 4569 0
-10430 133 0
-10431 4570 0
-10431 134 0
-10432 4571 0
-10432 135 0
-10433 4572 0
-10433 136 0
-10434 4573 0
-10434 137 0
-10435 4574 0
-10435 138 0
-10436 4575 0
-10436 139 0
-10437 4576 0
-10437 140 0
10424 10425 10426 10427 10428 10429 10430 10431 10432 10433 10434 10435 10436 10437 0
-10438 4563 0
-10438 141 0
-10439 4564 0
-10439 142 0
-10440 4565 0
-10440 143 0
-10441 4566 0
-10441 144 0
-10442 4567 0
-10442 145 0
-10443 4568 0
-10443 146 0
-10444 4569 0
-10444 147 0
-10445 4570 0
-10445 148 0
-10446 4571 0
-10446 149 0
-10447 4572 0
-10447 150 0
-10448 4573 0
-10448 151 0
-10449 4574 0
-10449 152 0
-10450 4575 0
-10450 153 0
-10451 4576 0
-10451 154 0
10438 10439 10440 10441 10442 10443 10444 10445 10446 10447 10448 10449 10450 10451 0
-10452 4563 0
-10452 155 0
-10453 4564 0
-10453 156 0
-10454 4565 0
-10454 157 0
-10455 4566 0
-10455 158 0
-10456 4567 0
-10456 159 0
-10457 4568 0
-10457 160 0
-10458 4569 0
-10458 161 0
-10459 4570 0
-10459 162 0
-10460 4571 0
-10460 163 0
-10461 4572 0
-10461 164 0
-10462 4573 0
-10462 165 0
-10463 4574 0
-10463 166 0
-10464 4575 0
-10464 167 0
-10465 4576 0
-10465 168 0
10452 10453 10454 10455 10456 10457 10458 10459 10460 10461 10462 10463 10464 10465 0
-10466 4563 0
-10466 169 0
-10467 4564 0
-10467 170 0
-10468 4565 0
-10468 171 0
-10469 4566 0
-10469 172 0
-10470 4567 0
-10470 173 0
-10471 4568 0
-10471 174 0
-10472 4569 0
-10472 175 0
-10473 4570 0
-10473 176 0
-10474 4571 0
-10474 177 0
-10475 4572 0
-10475 178 0
-10476 4573 0
-10476 179 0
-10477 4574 0
-10477 180 0
-10478 4575 0
-10478 181 0
-10479 4576 0
-10479 182 0
10466 10467 10468 10469 10470 10471 10472 10473 10474 10475 10476 10477 10478 10479 0
-10480 4563 0
-10480 183 0
-10481 4564 0
-10481 184 0
-10482 4565 0
-10482 185 0
-10483 4566 0
-10483 186 0
-10484 4567 0
-10484 187 0
-10485 4568 0
-10485 188 0
-10486 4569 0
-10486 189 0
-10487 4570 0
-10487 190 0
-10488 4571 0
-10488 191 0
-10489 4572 0
-10489 192 0
-10490 4573 0
-10490 193 0
-10491 4574 0
-10491 194 0
-10492 4575 0
-10492 195 0
-10493 4576 0
-10493 196 0
10480 10481 10482 10483 10484 10485 10486 10487 10488 10489 10490 10491 10492 10493 0
-10494 4616 0
-10494 113 0
-10495 4617 0
-10495 114 0
-10496 4618 0
-10496 115 0
-10497 4619 0
-10497 116 0
-10498 4620 0
-10498 117 0
-10499 4621 0
-10499 118 0
-10500 4622 0
-10500 119 0
-10501 4623 0
-10501 120 0
-10502 4624 0
-10502 121 0
-10503 4625 0
-10503 122 0
-10504 4626 0
-10504 123 0
-10505 4627 0
-10505 124 0
-10506 4628 0
-10506 125 0
-10507 4629 0
-10507 126 0
10494 10495 10496 10497 10498 10499 10500 10501 10502 10503 10504 10505 10506 10507 0
-10508 4616 0
-10508 127 0
-10509 4617 0
-10509 128 0
-10510 4618 0
-10510 129 0
-10511 4619 0
-10511 130 0
-10512 4620 0
-10512 131 0
-10513 4621 0
-10513 132 0
-10514 4622 0
-10514 133 0
-10515 4623 0
-10515 134 0
-10516 4624 0
-10516 135 0
-10517 4625 0
-10517 136 0
-10518 4626 0
-10518 137 0
-10519 4627 0
-10519 138 0
-10520 4628 0
-10520 139 0
-10521 4629 0
-10521 140 0
10508 10509 10510 10511 10512 10513 10514 10515 10516 10517 10518 10519 10520 10521 0
-10522 4616 0
-10522 141 0
-10523 4617 0
-10523 142 0
-10524 4618 0
-10524 143 0
-10525 4619 0
-10525 144 0
-10526 4620 0
-10526 145 0
-10527 4621 0
-10527 146 0
-10528 4622 0
-10528 147 0
-10529 4623 0
-10529 148 0
-10530 4624 0
-10530 149 0
-10531 4625 0
-10531 150 0
-10532 4626 0
-10532 151 0
-10533 4627 0
-10533 152 0
-10534 4628 0
-10534 153 0
-10535 4629 0
-10535 154 0
10522 10523 10524 10525 10526 10527 10528 10529 10530 10531 10532 10533 10534 10535 0
-10536 4616 0
-10536 155 0
-10537 4617 0
-10537 156 0
-10538 4618 0
-10538 157 0
-10539 4619 0
-10539 158 0
-10540 4620 0
-10540 159 0
-10541 4621 0
-10541 160 0
-10542 4622 0
-10542 161 0
-10543 4623 0
-10543 162 0
-10544 4624 0
-10544 163 0
-10545 4625 0
-10545 164 0
-10546 4626 0
-10546 165 0
-10547 4627 0
-10547 166 0
-10548 4628 0
-10548 167 0
-10549 4629 0
-10549 168 0
10536 10537 10538 10539 10540 10541 10542 10543 10544 10545 10546 10547 10548 10549 0
-10550 4616 0
-10550 169 0
-10551 4617 0
-10551 170 0
-10552 4618 0
-10552 171 0
-10553 4619 0
-10553 172 0
-10554 4620 0
-10554 173 0
-10555 4621 0
-10555 174 0
-10556 4622 0
-10556 175 0
-10557 4623 0
-10557 176 0
-10558 4624 0
-10558 177 0
-10559 4625 0
-10559 178 0
-10560 4626 0
-10560 179 0
-10561 4627 0
-10561 180 0
-10562 4628 0
-10562 181 0
-10563 4629 0
-10563 182 0
10550 10551 10552 10553 10554 10555 10556 10557 10558 10559 10560 10561 10562 10563 0
-10564 4616 0
-10564 183 0
-10565 4617 0
-10565 184 0
-10566 4618 0
-10566 185 0
-10567 4619 0
-10567 186 0
-10568 4620 0
-10568 187 0
-10569 4621 0
-10569 188 0
-10570 4622 0
-10570 189 0
-10571 4623 0
-10571 190 0
-10572 4624 0
-10572 191 0
-10573 4625 0
-10573 192 0
-10574 4626 0
-10574 193 0
-10575 4627 0
-10575 194 0
-10576 4628 0
-10576 195 0
-10577 4629 0
-10577 196 0
10564 10565 10566 10567 10568 10569 10570 10571 10572 10573 10574 10575 10576 10577 0
-10578 4669 0
-10578 127 0
-10579 4670 0
-10579 128 0
-10580 4671 0
-10580 129 0
-10581 4672 0
-10581 130 0
-10582 4673 0
-10582 131 0
-10583 4674 0
-10583 132 0
-10584 4675 0
-10584 133 0
-10585 4676 0
-10585 134 0
-10586 4677 0
-10586 135 0
-10587 4678 0
-10587 136 0
-10588 4679 0
-10588 137 0
-10589 4680 0
-10589 138 0
-10590 4681 0
-10590 139 0
-10591 4682 0
-10591 140 0
10578 10579 10580 10581 10582 10583 10584 10585 10586 10587 10588 10589 10590 10591 0
-10592 4669 0
-10592 141 0
-10593 4670 0
-10593 142 0
-10594 4671 0
-10594 143 0
-10595 4672 0
-10595 144 0
-10596 4673 0
-10596 145 0
-10597 4674 0
-10597 146 0
-10598 4675 0
-10598 147 0
-10599 4676 0
-10599 148 0
-10600 4677 0
-10600 149 0
-10601 4678 0
-10601 150 0
-10602 4679 0
-10602 151 0
-10603 4680 0
-10603 152 0
-10604 4681 0
-10604 153 0
-10605 4682 0
-10605 154 0
10592 10593 10594 10595 10596 10597 10598 10599 10600 10601 10602 10603 10604 10605 0
-10606 4669 0
-10606 155 0
-10607 4670 0
-10607 156 0
-10608 4671 0
-10608 157 0
-10609 4672 0
-10609 158 0
-10610 4673 0
-10610 159 0
-10611 4674 0
-10611 160 0
-10612 4675 0
-10612 161 0
-10613 4676 0
-10613 162 0
-10614 4677 0
-10614 163 0
-10615 4678 0
-10615 164 0
-10616 4679 0
-10616 165 0
-10617 4680 0
-10617 166 0
-10618 4681 0
-10618 167 0
-10619 4682 0
-10619 168 0
10606 10607 10608 10609 10610 10611 10612 10613 10614 10615 10616 10617 10618 10619 0
-10620 4669 0
-10620 169 0
-10621 4670 0
-10621 170 0
-10622 4671 0
-10622 171 0
-10623 4672 0
-10623 172 0
-10624 4673 0
-10624 173 0
-10625 4674 0
-10625 174 0
-10626 4675 0
-10626 175 0
-10627 4676 0
-10627 176 0
-10628 4677 0
-10628 177 0
-10629 4678 0
-10629 178 0
-10630 4679 0
-10630 179 0
-10631 4680 0
-10631 180 0
-10632 4681 0
-10632 181 0
-10633 4682 0
-10633 182 0
10620 10621 10622 10623 10624 10625 10626 10627 10628 10629 10630 10631 10632 10633 0
-10634 4669 0
-10634 183 0
-10635 4670 0
-10635 184 0
-10636 4671 0
-10636 185 0
-10637 4672 0
-10637 186 0
-10638 4673 0
-10638 187 0
-10639 4674 0
-10639 188 0
-10640 4675 0
-10640 189 0
-10641 4676 0
-10641 190 0
-10642 4677 0
-10642 191 0
-10643 4678 0
-10643 192 0
-10644 4679 0
-10644 193 0
-10645 4680 0
-10645 194 0
-10646 4681 0
-10646 195 0
-10647 4682 0
-10647 196 0
10634 10635 10636 10637 10638 10639 10640 10641 10642 10643 10644 10645 10646 10647 0
-10648 4722 0
-10648 141 0
-10649 4723 0
-10649 142 0
-10650 4724 0
-10650 143 0
-10651 4725 0
-10651 144 0
-10652 4726 0
-10652 145 0
-10653 4727 0
-10653 146 0
-10654 4728 0
-10654 147 0
-10655 4729 0
-10655 148 0
-10656 4730 0
-10656 149 0
-10657 4731 0
-10657 150 0
-10658 4732 0
-10658 151 0
-10659 4733 0
-10659 152 0
-10660 4734 0
-10660 153 0
-10661 4735 0
-10661 154 0
10648 10649 10650 10651 10652 10653 10654 10655 10656 10657 10658 10659 10660 10661 0
-10662 4722 0
-10662 155 0
-10663 4723 0
-10663 156 0
-10664 4724 0
-10664 157 0
-10665 4725 0
-10665 158 0
-10666 4726 0
-10666 159 0
-10667 4727 0
-10667 160 0
-10668 4728 0
-10668 161 0
-10669 4729 0
-10669 162 0
-10670 4730 0
-10670 163 0
-10671 4731 0
-10671 164 0
-10672 4732 0
-10672 165 0
-10673 4733 0
-10673 166 0
-10674 4734 0
-10674 167 0
-10675 4735 0
-10675 168 0
10662 10663 10664 10665 10666 10667 10668 10669 10670 10671 10672 10673 10674 10675 0
-10676 4722 0
-10676 169 0
-10677 4723 0
-10677 170 0
-10678 4724 0
-10678 171 0
-10679 4725 0
-10679 172 0
-10680 4726 0
-10680 173 0
-10681 4727 0
-10681 174 0
-10682 4728 0
-10682 175 0
-10683 4729 0
-10683 176 0
-10684 4730 0
-10684 177 0
-10685 4731 0
-10685 178 0
-10686 4732 0
-10686 179 0
-10687 4733 0
-10687 180 0
-10688 4734 0
-10688 181 0
-10689 4735 0
-10689 182 0
10676 10677 10678 10679 10680 10681 10682 10683 10684 10685 10686 10687 10688 10689 0
-10690 4722 0
-10690 183 0
-10691 4723 0
-10691 184 0
-10692 4724 0
-10692 185 0
-10693 4725 0
-10693 186 0
-10694 4726 0
-10694 187 0
-10695 4727 0
-10695 188 0
-10696 4728 0
-10696 189 0
-10697 4729 0
-10697 190 0
-10698 4730 0
-10698 191 0
-10699 4731 0
-10699 192 0
-10700 4732 0
-10700 193 0
-10701 4733 0
-10701 194 0
-10702 4734 0
-10702 195 0
-10703 4735 0
-10703 196 0
10690 10691 10692 10693 10694 10695 10696 10697 10698 10699 10700 10701 10702 10703 0
-10704 4775 0
-10704 155 0
-10705 4776 0
-10705 156 0
-10706 4777 0
-10706 157 0
-10707 4778 0
-10707 158 0
-10708 4779 0
-10708 159 0
-10709 4780 0
-10709 160 0
-10710 4781 0
-10710 161 0
-10711 4782 0
-10711 162 0
-10712 4783 0
-10712 163 0
-10713 4784 0
-10713 164 0
-10714 4785 0
-10714 165 0
-10715 4786 0
-10715 166 0
-10716 4787 0
-10716 167 0
-10717 4788 0
-10717 168 0
10704 10705 10706 10707 10708 10709 10710 10711 10712 10713 10714 10715 10716 10717 0
-10718 4775 0
-10718 169 0
-10719 4776 0
-10719 170 0
-10720 4777 0
-10720 171 0
-10721 4778 0
-10721 172 0
-10722 4779 0
-10722 173 0
-10723 4780 0
-10723 174 0
-10724 4781 0
-10724 175 0
-10725 4782 0
-10725 176 0
-10726 4783 0
-10726 177 0
-10727 4784 0
-10727 178 0
-10728 4785 0
-10728 179 0
-10729 4786 0
-10729 180 0
-10730 4787 0
-10730 181 0
-10731 4788 0
-10731 182 0
10718 10719 10720 10721 10722 10723 10724 10725 10726 10727 10728 10729 10730 10731 0
-10732 4775 0
-10732 183 0
-10733 4776 0
-10733 184 0
-10734 4777 0
-10734 185 0
-10735 4778 0
-10735 186 0
-10736 4779 0
-10736 187 0
-10737 4780 0
-10737 188 0
-10738 4781 0
-10738 189 0
-10739 4782 0
-10739 190 0
-10740 4783 0
-10740 191 0
-10741 4784 0
-10741 192 0
-10742 4785 0
-10742 193 0
-10743 4786 0
-10743 194 0
-10744 4787 0
-10744 195 0
-10745 4788 0
-10745 196 0
10732 10733 10734 10735 10736 10737 10738 10739 10740 10741 10742 10743 10744 10745 0
-10746 4828 0
-10746 169 0
-10747 4829 0
-10747 170 0
-10748 4830 0
-10748 171 0
-10749 4831 0
-10749 172 0
-10750 4832 0
-10750 173 0
-10751 4833 0
-10751 174 0
-10752 4834 0
-10752 175 0
-10753 4835 0
-10753 176 0
-10754 4836 0
-10754 177 0
-10755 4837 0
-10755 178 0
-10756 4838 0
-10756 179 0
-10757 4839 0
-10757 180 0
-10758 4840 0
-10758 181 0
-10759 4841 0
-10759 182 0
10746 10747 10748 10749 10750 10751 10752 10753 10754 10755 10756 10757 10758 10759 0
-10760 4828 0
-10760 183 0
-10761 4829 0
-10761 184 0
-10762 4830 0
-10762 185 0
-10763 4831 0
-10763 186 0
-10764 4832 0
-10764 187 0
-10765 4833 0
-10765 188 0
-10766 4834 0
-10766 189 0
-10767 4835 0
-10767 190 0
-10768 4836 0
-10768 191 0
-10769 4837 0
-10769 192 0
-10770 4838 0
-10770 193 0
-10771 4839 0
-10771 194 0
-10772 4840 0
-10772 195 0
-10773 4841 0
-10773 196 0
10760 10761 10762 10763 10764 10765 10766 10767 10768 10769 10770 10771 10772 10773 0
-10774 4881 0
-10774 183 0
-10775 4882 0
-10775 184 0
-10776 4883 0
-10776 185 0
-10777 4884 0
-10777 186 0
-10778 4885 0
-10778 187 0
-10779 4886 0
-10779 188 0
-10780 4887 0
-10780 189 0
-10781 4888 0
-10781 190 0
-10782 4889 0
-10782 191 0
-10783 4890 0
-10783 192 0
-10784 4891 0
-10784 193 0
-10785 4892 0
-10785 194 0
-10786 4893 0
-10786 195 0
-10787 4894 0
-10787 196 0
10774 10775 10776 10777 10778 10779 10780 10781 10782 10783 10784 10785 10786 10787 0
-10788 4987 0
-10788 85 0
-10789 4988 0
-10789 86 0
-10790 4989 0
-10790 87 0
-10791 4990 0
-10791 88 0
-10792 4991 0
-10792 89 0
-10793 4992 0
-10793 90 0
-10794 4993 0
-10794 91 0
-10795 4994 0
-10795 92 0
-10796 4995 0
-10796 93 0
-10797 4996 0
-10797 94 0
-10798 4997 0
-10798 95 0
-10799 4998 0
-10799 96 0
-10800 4999 0
-10800 97 0
-10801 5000 0
-10801 98 0
10788 10789 10790 10791 10792 10793 10794 10795 10796 10797 10798 10799 10800 10801 0
-10802 4987 0
-10802 99 0
-10803 4988 0
-10803 100 0
-10804 4989 0
-10804 101 0
-10805 4990 0
-10805 102 0
-10806 4991 0
-10806 103 0
-10807 4992 0
-10807 104 0
-10808 4993 0
-10808 105 0
-10809 4994 0
-10809 106 0
-10810 4995 0
-10810 107 0
-10811 4996 0
-10811 108 0
-10812 4997 0
-10812 109 0
-10813 4998 0
-10813 110 0
-10814 4999 0
-10814 111 0
-10815 5000 0
-10815 112 0
10802 10803 10804 10805 10806 10807 10808 10809 10810 10811 10812 10813 10814 10815 0
-10816 4987 0
-10816 113 0
-10817 4988 0
-10817 114 0
-10818 4989 0
-10818 115 0
-10819 4990 0
-10819 116 0
-10820 4991 0
-10820 117 0
-10821 4992 0
-10821 118 0
-10822 4993 0
-10822 119 0
-10823 4994 0
-10823 120 0
-10824 4995 0
-10824 121 0
-10825 4996 0
-10825 122 0
-10826 4997 0
-10826 123 0
-10827 4998 0
-10827 124 0
-10828 4999 0
-10828 125 0
-10829 5000 0
-10829 126 0
10816 10817 10818 10819 10820 10821 10822 10823 10824 10825 10826 10827 10828 10829 0
-10830 4987 0
-10830 127 0
-10831 4988 0
-10831 128 0
-10832 4989 0
-10832 129 0
-10833 4990 0
-10833 130 0
-10834 4991 0
-10834 131 0
-10835 4992 0
-10835 132 0
-10836 4993 0
-10836 133 0
-10837 4994 0
-10837 134 0
-10838 4995 0
-10838 135 0
-10839 4996 0
-10839 136 0
-10840 4997 0
-10840 137 0
-10841 4998 0
-10841 138 0
-10842 4999 0
-10842 139 0
-10843 5000 0
-10843 140 0
10830 10831 10832 10833 10834 10835 10836 10837 10838 10839 10840 10841 10842 10843 0
-10844 4987 0
-10844 141 0
-10845 4988 0
-10845 142 0
-10846 4989 0
-10846 143 0
-10847 4990 0
-10847 144 0
-10848 4991 0
-10848 145 0
-10849 4992 0
-10849 146 0
-10850 4993 0
-10850 147 0
-10851 4994 0
-10851 148 0
-10852 4995 0
-10852 149 0
-10853 4996 0
-10853 150 0
-10854 4997 0
-10854 151 0
-10855 4998 0
-10855 152 0
-10856 4999 0
-10856 153 0
-10857 5000 0
-10857 154 0
10844 10845 10846 10847 10848 10849 10850 10851 10852 10853 10854 10855 10856 10857 0
-10858 4987 0
-10858 155 0
-10859 4988 0
-10859 156 0
-10860 4989 0
-10860 157 0
-10861 4990 0
-10861 158 0
-10862 4991 0
-10862 159 0
-10863 4992 0
-10863 160 0
-10864 4993 0
-10864 161 0
-10865 4994 0
-10865 162 0
-10866 4995 0
-10866 163 0
-10867 4996 0
-10867 164 0
-10868 4997 0
-10868 165 0
-10869 4998 0
-10869 166 0
-10870 4999 0
-10870 167 0
-10871 5000 0
-10871 168 0
10858 10859 10860 10861 10862 10863 10864 10865 10866 10867 10868 10869 10870 10871 0
-10872 4987 0
-10872 169 0
-10873 4988 0
-10873 170 0
-10874 4989 0
-10874 171 0
-10875 4990 0
-10875 172 0
-10876 4991 0
-10876 173 0
-10877 4992 0
-10877 174 0
-10878 4993 0
-10878 175 0
-10879 4994 0
-10879 176 0
-10880 4995 0
-10880 177 0
-10881 4996 0
-10881 178 0
-10882 4997 0
-10882 179 0
-10883 4998 0
-10883 180 0
-10884 4999 0
-10884 181 0
-10885 5000 0
-10885 182 0
10872 10873 10874 10875 10876 10877 10878 10879 10880 10881 10882 10883 10884 10885 0
-10886 4987 0
-10886 183 0
-10887 4988 0
-10887 184 0
-10888 4989 0
-10888 185 0
-10889 4990 0
-10889 186 0
-10890 4991 0
-10890 187 0
-10891 4992 0
-10891 188 0
-10892 4993 0
-10892 189 0
-10893 4994 0
-10893 190 0
-10894 4995 0
-10894 191 0
-10895 4996 0
-10895 192 0
-10896 4997 0
-10896 193 0
-10897 4998 0
-10897 194 0
-10898 4999 0
-10898 195 0
-10899 5000 0
-10899 196 0
10886 10887 10888 10889 10890 10891 10892 10893 10894 10895 10896 10897 10898 10899 0
-10900 5040 0
-10900 99 0
-10901 5041 0
-10901 100 0
-10902 5042 0
-10902 101 0
-10903 5043 0
-10903 102 0
-10904 5044 0
-10904 103 0
-10905 5045 0
-10905 104 0
-10906 5046 0
-10906 105 0
-10907 5047 0
-10907 106 0
-10908 5048 0
-10908 107 0
-10909 5049 0
-10909 108 0
-10910 5050 0
-10910 109 0
-10911 5051 0
-10911 110 0
-10912 5052 0
-10912 111 0
-10913 5053 0
-10913 112 0
10900 10901 10902 10903 10904 10905 10906 10907 10908 10909 10910 10911 10912 10913 0
-10914 5040 0
-10914 113 0
-10915 5041 0
-10915 114 0
-10916 5042 0
-10916 115 0
-10917 5043 0
-10917 116 0
-10918 5044 0
-10918 117 0
-10919 5045 0
-10919 118 0
-10920 5046 0
-10920 119 0
-10921 5047 0
-10921 120 0
-10922 5048 0
-10922 121 0
-10923 5049 0
-10923 122 0
-10924 5050 0
-10924 123 0
-10925 5051 0
-10925 124 0
-10926 5052 0
-10926 125 0
-10927 5053 0
-10927 126 0
10914 10915 10916 10917 10918 10919 10920 10921 10922 10923 10924 10925 10926 10927 0
-10928 5040 0
-10928 127 0
-10929 5041 0
-10929 128 0
-10930 5042 0
-10930 129 0
-10931 5043 0
-10931 130 0
-10932 5044 0
-10932 131 0
-10933 5045 0
-10933 132 0
-10934 5046 0
-10934 133 0
-10935 5047 0
-10935 134 0
-10936 5048 0
-10936 135 0
-10937 5049 0
-10937 136 0
-10938 5050 0
-10938 137 0
-10939 5051 0
-10939 138 0
-10940 5052 0
-10940 139 0
-10941 5053 0
-10941 140 0
10928 10929 10930 10931 10932 10933 10934 10935 10936 10937 10938 10939 10940 10941 0
-10942 5040 0
-10942 141 0
-10943 5041 0
-10943 142 0
-10944 5042 0
-10944 143 0
-10945 5043 0
-10945 144 0
-10946 5044 0
-10946 145 0
-10947 5045 0
-10947 146 0
-10948 5046 0
-10948 147 0
-10949 5047 0
-10949 148 0
-10950 5048 0
-10950 149 0
-10951 5049 0
-10951 150 0
-10952 5050 0
-10952 151 0
-10953 5051 0
-10953 152 0
-10954 5052 0
-10954 153 0
-10955 5053 0
-10955 154 0
10942 10943 10944 10945 10946 10947 10948 10949 10950 10951 10952 10953 10954 10955 0
-10956 5040 0
-10956 155 0
-10957 5041 0
-10957 156 0
-10958 5042 0
-10958 157 0
-10959 5043 0
-10959 158 0
-10960 5044 0
-10960 159 0
-10961 5045 0
-10961 160 0
-10962 5046 0
-10962 161 0
-10963 5047 0
-10963 162 0
-10964 5048 0
-10964 163 0
-10965 5049 0
-10965 164 0
-10966 5050 0
-10966 165 0
-10967 5051 0
-10967 166 0
-10968 5052 0
-10968 167 0
-10969 5053 0
-10969 168 0
10956 10957 10958 10959 10960 10961 10962 10963 10964 10965 10966 10967 10968 10969 0
-10970 5040 0
-10970 169 0
-10971 5041 0
-10971 170 0
-10972 5042 0
-10972 171 0
-10973 5043 0
-10973 172 0
-10974 5044 0
-10974 173 0
-10975 5045 0
-10975 174 0
-10976 5046 0
-10976 175 0
-10977 5047 0
-10977 176 0
-10978 5048 0
-10978 177 0
-10979 5049 0
-10979 178 0
-10980 5050 0
-10980 179 0
-10981 5051 0
-10981 180 0
-10982 5052 0
-10982 181 0
-10983 5053 0
-10983 182 0
10970 10971 10972 10973 10974 10975 10976 10977 10978 10979 10980 10981 10982 10983 0
-10984 5040 0
-10984 183 0
-10985 5041 0
-10985 184 0
-10986 5042 0
-10986 185 0
-10987 5043 0
-10987 186 0
-10988 5044 0
-10988 187 0
-10989 5045 0
-10989 188 0
-10990 5046 0
-10990 189 0
-10991 5047 0
-10991 190 0
-10992 5048 0
-10992 191 0
-10993 5049 0
-10993 192 0
-10994 5050 0
-10994 193 0
-10995 5051 0
-10995 194 0
-10996 5052 0
-10996 195 0
-10997 5053 0
-10997 196 0
10984 10985 10986 10987 10988 10989 10990 10991 10992 10993 10994 10995 10996 10997 0
-10998 5093 0
-10998 113 0
-10999 5094 0
-10999 114 0
-11000 5095 0
-11000 115 0
-11001 5096 0
-11001 116 0
-11002 5097 0
-11002 117 0
-11003 5098 0
-11003 118 0
-11004 5099 0
-11004 119 0
-11005 5100 0
-11005 120 0
-11006 5101 0
-11006 121 0
-11007 5102 0
-11007 122 0
-11008 5103 0
-11008 123 0
-11009 5104 0
-11009 124 0
-11010 5105 0
-11010 125 0
-11011 5106 0
-11011 126 0
10998 10999 11000 11001 11002 11003 11004 11005 11006 11007 11008 11009 11010 11011 0
-11012 5093 0
-11012 127 0
-11013 5094 0
-11013 128 0
-11014 5095 0
-11014 129 0
-11015 5096 0
-11015 130 0
-11016 5097 0
-11016 131 0
-11017 5098 0
-11017 132 0
-11018 5099 0
-11018 133 0
-11019 5100 0
-11019 134 0
-11020 5101 0
-11020 135 0
-11021 5102 0
-11021 136 0
-11022 5103 0
-11022 137 0
-11023 5104 0
-11023 138 0
-11024 5105 0
-11024 139 0
-11025 5106 0
-11025 140 0
11012 11013 11014 11015 11016 11017 11018 11019 11020 11021 11022 11023 11024 11025 0
-11026 5093 0
-11026 141 0
-11027 5094 0
-11027 142 0
-11028 5095 0
-11028 143 0
-11029 5096 0
-11029 144 0
-11030 5097 0
-11030 145 0
-11031 5098 0
-11031 146 0
-11032 5099 0
-11032 147 0
-11033 5100 0
-11033 148 0
-11034 5101 0
-11034 149 0
-11035 5102 0
-11035 150 0
-11036 5103 0
-11036 151 0
-11037 5104 0
-11037 152 0
-11038 5105 0
-11038 153 0
-11039 5106 0
-11039 154 0
11026 11027 11028 11029 11030 11031 11032 11033 11034 11035 11036 11037 11038 11039 0
-11040 5093 0
-11040 155 0
-11041 5094 0
-11041 156 0
-11042 5095 0
-11042 157 0
-11043 5096 0
-11043 158 0
-11044 5097 0
-11044 159 0
-11045 5098 0
-11045 160 0
-11046 5099 0
-11046 161 0
-11047 5100 0
-11047 162 0
-11048 5101 0
-11048 163 0
-11049 5102 0
-11049 164 0
-11050 5103 0
-11050 165 0
-11051 5104 0
-11051 166 0
-11052 5105 0
-11052 167 0
-11053 5106 0
-11053 168 0
11040 11041 11042 11043 11044 11045 11046 11047 11048 11049 11050 11051 11052 11053 0
-11054 5093 0
-11054 169 0
-11055 5094 0
-11055 170 0
-11056 5095 0
-11056 171 0
-11057 5096 0
-11057 172 0
-11058 5097 0
-11058 173 0
-11059 5098 0
-11059 174 0
-11060 5099 0
-11060 175 0
-11061 5100 0
-11061 176 0
-11062 5101 0
-11062 177 0
-11063 5102 0
-11063 178 0
-11064 5103 0
-11064 179 0
-11065 5104 0
-11065 180 0
-11066 5105 0
-11066 181 0
-11067 5106 0
-11067 182 0
11054 11055 11056 11057 11058 11059 11060 11061 11062 11063 11064 11065 11066 11067 0
-11068 5093 0
-11068 183 0
-11069 5094 0
-11069 184 0
-11070 5095 0
-11070 185 0
-11071 5096 0
-11071 186 0
-11072 5097 0
-11072 187 0
-11073 5098 0
-11073 188 0
-11074 5099 0
-11074 189 0
-11075 5100 0
-11075 190 0
-11076 5101 0
-11076 191 0
-11077 5102 0
-11077 192 0
-11078 5103 0
-11078 193 0
-11079 5104 0
-11079 194 0
-11080 5105 0
-11080 195 0
-11081 5106 0
-11081 196 0
11068 11069 11070 11071 11072 11073 11074 11075 11076 11077 11078 11079 11080 11081 0
-11082 5146 0
-11082 127 0
-11083 5147 0
-11083 128 0
-11084 5148 0
-11084 129 0
-11085 5149 0
-11085 130 0
-11086 5150 0
-11086 131 0
-11087 5151 0
-11087 132 0
-11088 5152 0
-11088 133 0
-11089 5153 0
-11089 134 0
-11090 5154 0
-11090 135 0
-11091 5155 0
-11091 136 0
-11092 5156 0
-11092 137 0
-11093 5157 0
-11093 138 0
-11094 5158 0
-11094 139 0
-11095 5159 0
-11095 140 0
11082 11083 11084 11085 11086 11087 11088 11089 11090 11091 11092 11093 11094 11095 0
-11096 5146 0
-11096 141 0
-11097 5147 0
-11097 142 0
-11098 5148 0
-11098 143 0
-11099 5149 0
-11099 144 0
-11100 5150 0
-11100 145 0
-11101 5151 0
-11101 146 0
-11102 5152 0
-11102 147 0
-11103 5153 0
-11103 148 0
-11104 5154 0
-11104 149 0
-11105 5155 0
-11105 150 0
-11106 5156 0
-11106 151 0
-11107 5157 0
-11107 152 0
-11108 5158 0
-11108 153 0
-11109 5159 0
-11109 154 0
11096 11097 11098 11099 11100 11101 11102 11103 11104 11105 11106 11107 11108 11109 0
-11110 5146 0
-11110 155 0
-11111 5147 0
-11111 156 0
-11112 5148 0
-11112 157 0
-11113 5149 0
-11113 158 0
-11114 5150 0
-11114 159 0
-11115 5151 0
-11115 160 0
-11116 5152 0
-11116 161 0
-11117 5153 0
-11117 162 0
-11118 5154 0
-11118 163 0
-11119 5155 0
-11119 164 0
-11120 5156 0
-11120 165 0
-11121 5157 0
-11121 166 0
-11122 5158 0
-11122 167 0
-11123 5159 0
-11123 168 0
11110 11111 11112 11113 11114 11115 11116 11117 11118 11119 11120 11121 11122 11123 0
-11124 5146 0
-11124 169 0
-11125 5147 0
-11125 170 0
-11126 5148 0
-11126 171 0
-11127 5149 0
-11127 172 0
-11128 5150 0
-11128 173 0
-11129 5151 0
-11129 174 0
-11130 5152 0
-11130 175 0
-11131 5153 0
-11131 176 0
-11132 5154 0
-11132 177 0
-11133 5155 0
-11133 178 0
-11134 5156 0
-11134 179 0
-11135 5157 0
-11135 180 0
-11136 5158 0
-11136 181 0
-11137 5159 0
-11137 182 0
11124 11125 11126 11127 11128 11129 11130 11131 11132 11133 11134 11135 11136 11137 0
-11138 5146 0
-11138 183 0
-11139 5147 0
-11139 184 0
-11140 5148 0
-11140 185 0
-11141 5149 0
-11141 186 0
-11142 5150 0
-11142 187 0
-11143 5151 0
-11143 188 0
-11144 5152 0
-11144 189 0
-11145 5153 0
-11145 190 0
-11146 5154 0
-11146 191 0
-11147 5155 0
-11147 192 0
-11148 5156 0
-11148 193 0
-11149 5157 0
-11149 194 0
-11150 5158 0
-11150 195 0
-11151 5159 0
-11151 196 0
11138 11139 11140 11141 11142 11143 11144 11145 11146 11147 11148 11149 11150 11151 0
-11152 5199 0
-11152 141 0
-11153 5200 0
-11153 142 0
-11154 5201 0
-11154 143 0
-11155 5202 0
-11155 144 0
-11156 5203 0
-11156 145 0
-11157 5204 0
-11157 146 0
-11158 5205 0
-11158 147 0
-11159 5206 0
-11159 148 0
-11160 5207 0
-11160 149 0
-11161 5208 0
-11161 150 0
-11162 5209 0
-11162 151 0
-11163 5210 0
-11163 152 0
-11164 5211 0
-11164 153 0
-11165 5212 0
-11165 154 0
11152 11153 11154 11155 11156 11157 11158 11159 11160 11161 11162 11163 11164 11165 0
-11166 5199 0
-11166 155 0
-11167 5200 0
-11167 156 0
-11168 5201 0
-11168 157 0
-11169 5202 0
-11169 158 0
-11170 5203 0
-11170 159 0
-11171 5204 0
-11171 160 0
-11172 5205 0
-11172 161 0
-11173 5206 0
-11173 162 0
-11174 5207 0
-11174 163 0
-11175 5208 0
-11175 164 0
-11176 5209 0
-11176 165 0
-11177 5210 0
-11177 166 0
-11178 5211 0
-11178 167 0
-11179 5212 0
-11179 168 0
11166 11167 11168 11169 11170 11171 11172 11173 11174 11175 11176 11177 11178 11179 0
-11180 5199 0
-11180 169 0
-11181 5200 0
-11181 170 0
-11182 5201 0
-11182 171 0
-11183 5202 0
-11183 172 0
-11184 5203 0
-11184 173 0
-11185 5204 0
-11185 174 0
-11186 5205 0
-11186 175 0
-11187 5206 0
-11187 176 0
-11188 5207 0
-11188 177 0
-11189 5208 0
-11189 178 0
-11190 5209 0
-11190 179 0
-11191 5210 0
-11191 180 0
-11192 5211 0
-11192 181 0
-11193 5212 0
-11193 182 0
11180 11181 11182 11183 11184 11185 11186 11187 11188 11189 11190 11191 11192 11193 0
-11194 5199 0
-11194 183 0
-11195 5200 0
-11195 184 0
-11196 5201 0
-11196 185 0
-11197 5202 0
-11197 186 0
-11198 5203 0
-11198 187 0
-11199 5204 0
-11199 188 0
-11200 5205 0
-11200 189 0
-11201 5206 0
-11201 190 0
-11202 5207 0
-11202 191 0
-11203 5208 0
-11203 192 0
-11204 5209 0
-11204 193 0
-11205 5210 0
-11205 194 0
-11206 5211 0
-11206 195 0
-11207 5212 0
-11207 196 0
11194 11195 11196 11197 11198 11199 11200 11201 11202 11203 11204 11205 11206 11207 0
-11208 5252 0
-11208 155 0
-11209 5253 0
-11209 156 0
-11210 5254 0
-11210 157 0
-11211 5255 0
-11211 158 0
-11212 5256 0
-11212 159 0
-11213 5257 0
-11213 160 0
-11214 5258 0
-11214 161 0
-11215 5259 0
-11215 162 0
-11216 5260 0
-11216 163 0
-11217 5261 0
-11217 164 0
-11218 5262 0
-11218 165 0
-11219 5263 0
-11219 166 0
-11220 5264 0
-11220 167 0
-11221 5265 0
-11221 168 0
11208 11209 11210 11211 11212 11213 11214 11215 11216 11217 11218 11219 11220 11221 0
-11222 5252 0
-11222 169 0
-11223 5253 0
-11223 170 0
-11224 5254 0
-11224 171 0
-11225 5255 0
-11225 172 0
-11226 5256 0
-11226 173 0
-11227 5257 0
-11227 174 0
-11228 5258 0
-11228 175 0
-11229 5259 0
-11229 176 0
-11230 5260 0
-11230 177 0
-11231 5261 0
-11231 178 0
-11232 5262 0
-11232 179 0
-11233 5263 0
-11233 180 0
-11234 5264 0
-11234 181 0
-11235 5265 0
-11235 182 0
11222 11223 11224 11225 11226 11227 11228 11229 11230 11231 11232 11233 11234 11235 0
-11236 5252 0
-11236 183 0
-11237 5253 0
-11237 184 0
-11238 5254 0
-11238 185 0
-11239 5255 0
-11239 186 0
-11240 5256 0
-11240 187 0
-11241 5257 0
-11241 188 0
-11242 5258 0
-11242 189 0
-11243 5259 0
-11243 190 0
-11244 5260 0
-11244 191 0
-11245 5261 0
-11245 192 0
-11246 5262 0
-11246 193 0
-11247 5263 0
-11247 194 0
-11248 5264 0
-11248 195 0
-11249 5265 0
-11249 196 0
11236 11237 11238 11239 11240 11241 11242 11243 11244 11245 11246 11247 11248 11249 0
-11250 5305 0
-11250 169 0
-11251 5306 0
-11251 170 0
-11252 5307 0
-11252 171 0
-11253 5308 0
-11253 172 0
-11254 5309 0
-11254 173 0
-11255 5310 0
-11255 174 0
-11256 5311 0
-11256 175 0
-11257 5312 0
-11257 176 0
-11258 5313 0
-11258 177 0
-11259 5314 0
-11259 178 0
-11260 5315 0
-11260 179 0
-11261 5316 0
-11261 180 0
-11262 5317 0
-11262 181 0
-11263 5318 0
-11263 182 0
11250 11251 11252 11253 11254 11255 11256 11257 11258 11259 11260 11261 11262 11263 0
-11264 5305 0
-11264 183 0
-11265 5306 0
-11265 184 0
-11266 5307 0
-11266 185 0
-11267 5308 0
-11267 186 0
-11268 5309 0
-11268 187 0
-11269 5310 0
-11269 188 0
-11270 5311 0
-11270 189 0
-11271 5312 0
-11271 190 0
-11272 5313 0
-11272 191 0
-11273 5314 0
-11273 192 0
-11274 5315 0
-11274 193 0
-11275 5316 0
-11275 194 0
-11276 5317 0
-11276 195 0
-11277 5318 0
-11277 196 0
11264 11265 11266 11267 11268 11269 11270 11271 11272 11273 11274 11275 11276 11277 0
-11278 5358 0
-11278 183 0
-11279 5359 0
-11279 184 0
-11280 5360 0
-11280 185 0
-11281 5361 0
-11281 186 0
-11282 5362 0
-11282 187 0
-11283 5363 0
-11283 188 0
-11284 5364 0
-11284 189 0
-11285 5365 0
-11285 190 0
-11286 5366 0
-11286 191 0
-11287 5367 0
-11287 192 0
-11288 5368 0
-11288 193 0
-11289 5369 0
-11289 194 0
-11290 5370 0
-11290 195 0
-11291 5371 0
-11291 196 0
11278 11279 11280 11281 11282 11283 11284 11285 11286 11287 11288 11289 11290 11291 0
-11292 5464 0
-11292 99 0
-11293 5465 0
-11293 100 0
-11294 5466 0
-11294 101 0
-11295 5467 0
-11295 102 0
-11296 5468 0
-11296 103 0
-11297 5469 0
-11297 104 0
-11298 5470 0
-11298 105 0
-11299 5471 0
-11299 106 0
-11300 5472 0
-11300 107 0
-11301 5473 0
-11301 108 0
-11302 5474 0
-11302 109 0
-11303 5475 0
-11303 110 0
-11304 5476 0
-11304 111 0
-11305 5477 0
-11305 112 0
11292 11293 11294 11295 11296 11297 11298 11299 11300 11301 11302 11303 11304 11305 0
-11306 5464 0
-11306 113 0
-11307 5465 0
-11307 114 0
-11308 5466 0
-11308 115 0
-11309 5467 0
-11309 116 0
-11310 5468 0
-11310 117 0
-11311 5469 0
-11311 118 0
-11312 5470 0
-11312 119 0
-11313 5471 0
-11313 120 0
-11314 5472 0
-11314 121 0
-11315 5473 0
-11315 122 0
-11316 5474 0
-11316 123 0
-11317 5475 0
-11317 124 0
-11318 5476 0
-11318 125 0
-11319 5477 0
-11319 126 0
11306 11307 11308 11309 11310 11311 11312 11313 11314 11315 11316 11317 11318 11319 0
-11320 5464 0
-11320 127 0
-11321 5465 0
-11321 128 0
-11322 5466 0
-11322 129 0
-11323 5467 0
-11323 130 0
-11324 5468 0
-11324 131 0
-11325 5469 0
-11325 132 0
-11326 5470 0
-11326 133 0
-11327 5471 0
-11327 134 0
-11328 5472 0
-11328 135 0
-11329 5473 0
-11329 136 0
-11330 5474 0
-11330 137 0
-11331 5475 0
-11331 138 0
-11332 5476 0
-11332 139 0
-11333 5477 0
-11333 140 0
11320 11321 11322 11323 11324 11325 11326 11327 11328 11329 11330 11331 11332 11333 0
-11334 5464 0
-11334 141 0
-11335 5465 0
-11335 142 0
-11336 5466 0
-11336 143 0
-11337 5467 0
-11337 144 0
-11338 5468 0
-11338 145 0
-11339 5469 0
-11339 146 0
-11340 5470 0
-11340 147 0
-11341 5471 0
-11341 148 0
-11342 5472 0
-11342 149 0
-11343 5473 0
-11343 150 0
-11344 5474 0
-11344 151 0
-11345 5475 0
-11345 152 0
-11346 5476 0
-11346 153 0
-11347 5477 0
-11347 154 0
11334 11335 11336 11337 11338 11339 11340 11341 11342 11343 11344 11345 11346 11347 0
-11348 5464 0
-11348 155 0
-11349 5465 0
-11349 156 0
-11350 5466 0
-11350 157 0
-11351 5467 0
-11351 158 0
-11352 5468 0
-11352 159 0
-11353 5469 0
-11353 160 0
-11354 5470 0
-11354 161 0
-11355 5471 0
-11355 162 0
-11356 5472 0
-11356 163 0
-11357 5473 0
-11357 164 0
-11358 5474 0
-11358 165 0
-11359 5475 0
-11359 166 0
-11360 5476 0
-11360 167 0
-11361 5477 0
-11361 168 0
11348 11349 11350 11351 11352 11353 11354 11355 11356 11357 11358 11359 11360 11361 0
-11362 5464 0
-11362 169 0
-11363 5465 0
-11363 170 0
-11364 5466 0
-11364 171 0
-11365 5467 0
-11365 172 0
-11366 5468 0
-11366 173 0
-11367 5469 0
-11367 174 0
-11368 5470 0
-11368 175 0
-11369 5471 0
-11369 176 0
-11370 5472 0
-11370 177 0
-11371 5473 0
-11371 178 0
-11372 5474 0
-11372 179 0
-11373 5475 0
-11373 180 0
-11374 5476 0
-11374 181 0
-11375 5477 0
-11375 182 0
11362 11363 11364 11365 11366 11367 11368 11369 11370 11371 11372 11373 11374 11375 0
-11376 5464 0
-11376 183 0
-11377 5465 0
-11377 184 0
-11378 5466 0
-11378 185 0
-11379 5467 0
-11379 186 0
-11380 5468 0
-11380 187 0
-11381 5469 0
-11381 188 0
-11382 5470 0
-11382 189 0
-11383 5471 0
-11383 190 0
-11384 5472 0
-11384 191 0
-11385 5473 0
-11385 192 0
-11386 5474 0
-11386 193 0
-11387 5475 0
-11387 194 0
-11388 5476 0
-11388 195 0
-11389 5477 0
-11389 196 0
11376 11377 11378 11379 11380 11381 11382 11383 11384 11385 11386 11387 11388 11389 0
-11390 5517 0
-11390 113 0
-11391 5518 0
-11391 114 0
-11392 5519 0
-11392 115 0
-11393 5520 0
-11393 116 0
-11394 5521 0
-11394 117 0
-11395 5522 0
-11395 118 0
-11396 5523 0
-11396 119 0
-11397 5524 0
-11397 120 0
-11398 5525 0
-11398 121 0
-11399 5526 0
-11399 122 0
-11400 5527 0
-11400 123 0
-11401 5528 0
-11401 124 0
-11402 5529 0
-11402 125 0
-11403 5530 0
-11403 126 0
11390 11391 11392 11393 11394 11395 11396 11397 11398 11399 11400 11401 11402 11403 0
-11404 5517 0
-11404 127 0
-11405 5518 0
-11405 128 0
-11406 5519 0
-11406 129 0
-11407 5520 0
-11407 130 0
-11408 5521 0
-11408 131 0
-11409 5522 0
-11409 132 0
-11410 5523 0
-11410 133 0
-11411 5524 0
-11411 134 0
-11412 5525 0
-11412 135 0
-11413 5526 0
-11413 136 0
-11414 5527 0
-11414 137 0
-11415 5528 0
-11415 138 0
-11416 5529 0
-11416 139 0
-11417 5530 0
-11417 140 0
11404 11405 11406 11407 11408 11409 11410 11411 11412 11413 11414 11415 11416 11417 0
-11418 5517 0
-11418 141 0
-11419 5518 0
-11419 142 0
-11420 5519 0
-11420 143 0
-11421 5520 0
-11421 144 0
-11422 5521 0
-11422 145 0
-11423 5522 0
-11423 146 0
-11424 5523 0
-11424 147 0
-11425 5524 0
-11425 148 0
-11426 5525 0
-11426 149 0
-11427 5526 0
-11427 150 0
-11428 5527 0
-11428 151 0
-11429 5528 0
-11429 152 0
-11430 5529 0
-11430 153 0
-11431 5530 0
-11431 154 0
11418 11419 11420 11421 11422 11423 11424 11425 11426 11427 11428 11429 11430 11431 0
-11432 5517 0
-11432 155 0
-11433 5518 0
-11433 156 0
-11434 5519 0
-11434 157 0
-11435 5520 0
-11435 158 0
-11436 5521 0
-11436 159 0
-11437 5522 0
-11437 160 0
-11438 5523 0
-11438 161 0
-11439 5524 0
-11439 162 0
-11440 5525 0
-11440 163 0
-11441 5526 0
-11441 164 0
-11442 5527 0
-11442 165 0
-11443 5528 0
-11443 166 0
-11444 5529 0
-11444 167 0
-11445 5530 0
-11445 168 0
11432 11433 11434 11435 11436 11437 11438 11439 11440 11441 11442 11443 11444 11445 0
-11446 5517 0
-11446 169 0
-11447 5518 0
-11447 170 0
-11448 5519 0
-11448 171 0
-11449 5520 0
-11449 172 0
-11450 5521 0
-11450 173 0
-11451 5522 0
-11451 174 0
-11452 5523 0
-11452 175 0
-11453 5524 0
-11453 176 0
-11454 5525 0
-11454 177 0
-11455 5526 0
-11455 178 0
-11456 5527 0
-11456 179 0
-11457 5528 0
-11457 180 0
-11458 5529 0
-11458 181 0
-11459 5530 0
-11459 182 0
11446 11447 11448 11449 11450 11451 11452 11453 11454 11455 11456 11457 11458 11459 0
-11460 5517 0
-11460 183 0
-11461 5518 0
-11461 184 0
-11462 5519 0
-11462 185 0
-11463 5520 0
-11463 186 0
-11464 5521 0
-11464 187 0
-11465 5522 0
-11465 188 0
-11466 5523 0
-11466 189 0
-11467 5524 0
-11467 190 0
-11468 5525 0
-11468 191 0
-11469 5526 0
-11469 192 0
-11470 5527 0
-11470 193 0
-11471 5528 0
-11471 194 0
-11472 5529 0
-11472 195 0
-11473 5530 0
-11473 196 0
11460 11461 11462 11463 11464 11465 11466 11467 11468 11469 11470 11471 11472 11473 0
-11474 5570 0
-11474 127 0
-11475 5571 0
-11475 128 0
-11476 5572 0
-11476 129 0
-11477 5573 0
-11477 130 0
-11478 5574 0
-11478 131 0
-11479 5575 0
-11479 132 0
-11480 5576 0
-11480 133 0
-11481 5577 0
-11481 134 0
-11482 5578 0
-11482 135 0
-11483 5579 0
-11483 136 0
-11484 5580 0
-11484 137 0
-11485 5581 0
-11485 138 0
-11486 5582 0
-11486 139 0
-11487 5583 0
-11487 140 0
11474 11475 11476 11477 11478 11479 11480 11481 11482 11483 11484 11485 11486 11487 0
-11488 5570 0
-11488 141 0
-11489 5571 0
-11489 142 0
-11490 5572 0
-11490 143 0
-11491 5573 0
-11491 144 0
-11492 5574 0
-11492 145 0
-11493 5575 0
-11493 146 0
-11494 5576 0
-11494 147 0
-11495 5577 0
-11495 148 0
-11496 5578 0
-11496 149 0
-11497 5579 0
-11497 150 0
-11498 5580 0
-11498 151 0
-11499 5581 0
-11499 152 0
-11500 5582 0
-11500 153 0
-11501 5583 0
-11501 154 0
11488 11489 11490 11491 11492 11493 11494 11495 11496 11497 11498 11499 11500 11501 0
-11502 5570 0
-11502 155 0
-11503 5571 0
-11503 156 0
-11504 5572 0
-11504 157 0
-11505 5573 0
-11505 158 0
-11506 5574 0
-11506 159 0
-11507 5575 0
-11507 160 0
-11508 5576 0
-11508 161 0
-11509 5577 0
-11509 162 0
-11510 5578 0
-11510 163 0
-11511 5579 0
-11511 164 0
-11512 5580 0
-11512 165 0
-11513 5581 0
-11513 166 0
-11514 5582 0
-11514 167 0
-11515 5583 0
-11515 168 0
11502 11503 11504 11505 11506 11507 11508 11509 11510 11511 11512 11513 11514 11515 0
-11516 5570 0
-11516 169 0
-11517 5571 0
-11517 170 0
-11518 5572 0
-11518 171 0
-11519 5573 0
-11519 172 0
-11520 5574 0
-11520 173 0
-11521 5575 0
-11521 174 0
-11522 5576 0
-11522 175 0
-11523 5577 0
-11523 176 0
-11524 5578 0
-11524 177 0
-11525 5579 0
-11525 178 0
-11526 5580 0
-11526 179 0
-11527 5581 0
-11527 180 0
-11528 5582 0
-11528 181 0
-11529 5583 0
-11529 182 0
11516 11517 11518 11519 11520 11521 11522 11523 11524 11525 11526 11527 11528 11529 0
-11530 5570 0
-11530 183 0
-11531 5571 0
-11531 184 0
-11532 5572 0
-11532 185 0
-11533 5573 0
-11533 186 0
-11534 5574 0
-11534 187 0
-11535 5575 0
-11535 188 0
-11536 5576 0
-11536 189 0
-11537 5577 0
-11537 190 0
-11538 5578 0
-11538 191 0
-11539 5579 0
-11539 192 0
-11540 5580 0
-11540 193 0
-11541 5581 0
-11541 194 0
-11542 5582 0
-11542 195 0
-11543 5583 0
-11543 196 0
11530 11531 11532 11533 11534 11535 11536 11537 11538 11539 11540 11541 11542 11543 0
-11544 5623 0
-11544 141 0
-11545 5624 0
-11545 142 0
-11546 5625 0
-11546 143 0
-11547 5626 0
-11547 144 0
-11548 5627 0
-11548 145 0
-11549 5628 0
-11549 146 0
-11550 5629 0
-11550 147 0
-11551 5630 0
-11551 148 0
-11552 5631 0
-11552 149 0
-11553 5632 0
-11553 150 0
-11554 5633 0
-11554 151 0
-11555 5634 0
-11555 152 0
-11556 5635 0
-11556 153 0
-11557 5636 0
-11557 154 0
11544 11545 11546 11547 11548 11549 11550 11551 11552 11553 11554 11555 11556 11557 0
-11558 5623 0
-11558 155 0
-11559 5624 0
-11559 156 0
-11560 5625 0
-11560 157 0
-11561 5626 0
-11561 158 0
-11562 5627 0
-11562 159 0
-11563 5628 0
-11563 160 0
-11564 5629 0
-11564 161 0
-11565 5630 0
-11565 162 0
-11566 5631 0
-11566 163 0
-11567 5632 0
-11567 164 0
-11568 5633 0
-11568 165 0
-11569 5634 0
-11569 166 0
-11570 5635 0
-11570 167 0
-11571 5636 0
-11571 168 0
11558 11559 11560 11561 11562 11563 11564 11565 11566 11567 11568 11569 11570 11571 0
-11572 5623 0
-11572 169 0
-11573 5624 0
-11573 170 0
-11574 5625 0
-11574 171 0
-11575 5626 0
-11575 172 0
-11576 5627 0
-11576 173 0
-11577 5628 0
-11577 174 0
-11578 5629 0
-11578 175 0
-11579 5630 0
-11579 176 0
-11580 5631 0
-11580 177 0
-11581 5632 0
-11581 178 0
-11582 5633 0
-11582 179 0
-11583 5634 0
-11583 180 0
-11584 5635 0
-11584 181 0
-11585 5636 0
-11585 182 0
11572 11573 11574 11575 11576 11577 11578 11579 11580 11581 11582 11583 11584 11585 0
-11586 5623 0
-11586 183 0
-11587 5624 0
-11587 184 0
-11588 5625 0
-11588 185 0
-11589 5626 0
-11589 186 0
-11590 5627 0
-11590 187 0
-11591 5628 0
-11591 188 0
-11592 5629 0
-11592 189 0
-11593 5630 0
-11593 190 0
-11594 5631 0
-11594 191 0
-11595 5632 0
-11595 192 0
-11596 5633 0
-11596 193 0
-11597 5634 0
-11597 194 0
-11598 5635 0
-11598 195 0
-11599 5636 0
-11599 196 0
11586 11587 11588 11589 11590 11591 11592 11593 11594 11595 11596 11597 11598 11599 0
-11600 5676 0
-11600 155 0
-11601 5677 0
-11601 156 0
-11602 5678 0
-11602 157 0
-11603 5679 0
-11603 158 0
-11604 5680 0
-11604 159 0
-11605 5681 0
-11605 160 0
-11606 5682 0
-11606 161 0
-11607 5683 0
-11607 162 0
-11608 5684 0
-11608 163 0
-11609 5685 0
-11609 164 0
-11610 5686 0
-11610 165 0
-11611 5687 0
-11611 166 0
-11612 5688 0
-11612 167 0
-11613 5689 0
-11613 168 0
11600 11601 11602 11603 11604 11605 11606 11607 11608 11609 11610 11611 11612 11613 0
-11614 5676 0
-11614 169 0
-11615 5677 0
-11615 170 0
-11616 5678 0
-11616 171 0
-11617 5679 0
-11617 172 0
-11618 5680 0
-11618 173 0
-11619 5681 0
-11619 174 0
-11620 5682 0
-11620 175 0
-11621 5683 0
-11621 176 0
-11622 5684 0
-11622 177 0
-11623 5685 0
-11623 178 0
-11624 5686 0
-11624 179 0
-11625 5687 0
-11625 180 0
-11626 5688 0
-11626 181 0
-11627 5689 0
-11627 182 0
11614 11615 11616 11617 11618 11619 11620 11621 11622 11623 11624 11625 11626 11627 0
-11628 5676 0
-11628 183 0
-11629 5677 0
-11629 184 0
-11630 5678 0
-11630 185 0
-11631 5679 0
-11631 186 0
-11632 5680 0
-11632 187 0
-11633 5681 0
-11633 188 0
-11634 5682 0
-11634 189 0
-11635 5683 0
-11635 190 0
-11636 5684 0
-11636 191 0
-11637 5685 0
-11637 192 0
-11638 5686 0
-11638 193 0
-11639 5687 0
-11639 194 0
-11640 5688 0
-11640 195 0
-11641 5689 0
-11641 196 0
11628 11629 11630 11631 11632 11633 11634 11635 11636 11637 11638 11639 11640 11641 0
-11642 5729 0
-11642 169 0
-11643 5730 0
-11643 170 0
-11644 5731 0
-11644 171 0
-11645 5732 0
-11645 172 0
-11646 5733 0
-11646 173 0
-11647 5734 0
-11647 174 0
-11648 5735 0
-11648 175 0
-11649 5736 0
-11649 176 0
-11650 5737 0
-11650 177 0
-11651 5738 0
-11651 178 0
-11652 5739 0
-11652 179 0
-11653 5740 0
-11653 180 0
-11654 5741 0
-11654 181 0
-11655 5742 0
-11655 182 0
11642 11643 11644 11645 11646 11647 11648 11649 11650 11651 11652 11653 11654 11655 0
-11656 5729 0
-11656 183 0
-11657 5730 0
-11657 184 0
-11658 5731 0
-11658 185 0
-11659 5732 0
-11659 186 0
-11660 5733 0
-11660 187 0
-11661 5734 0
-11661 188 0
-11662 5735 0
-11662 189 0
-11663 5736 0
-11663 190 0
-11664 5737 0
-11664 191 0
-11665 5738 0
-11665 192 0
-11666 5739 0
-11666 193 0
-11667 5740 0
-11667 194 0
-11668 5741 0
-11668 195 0
-11669 5742 0
-11669 196 0
11656 11657 11658 11659 11660 11661 11662 11663 11664 11665 11666 11667 11668 11669 0
-11670 5782 0
-11670 183 0
-11671 5783 0
-11671 184 0
-11672 5784 0
-11672 185 0
-11673 5785 0
-11673 186 0
-11674 5786 0
-11674 187 0
-11675 5787 0
-11675 188 0
-11676 5788 0
-11676 189 0
-11677 5789 0
-11677 190 0
-11678 5790 0
-11678 191 0
-11679 5791 0
-11679 192 0
-11680 5792 0
-11680 193 0
-11681 5793 0
-11681 194 0
-11682 5794 0
-11682 195 0
-11683 5795 0
-11683 196 0
11670 11671 11672 11673 11674 11675 11676 11677 11678 11679 11680 11681 11682 11683 0
-11684 5888 0
-11684 113 0
-11685 5889 0
-11685 114 0
-11686 5890 0
-11686 115 0
-11687 5891 0
-11687 116 0
-11688 5892 0
-11688 117 0
-11689 5893 0
-11689 118 0
-11690 5894 0
-11690 119 0
-11691 5895 0
-11691 120 0
-11692 5896 0
-11692 121 0
-11693 5897 0
-11693 122 0
-11694 5898 0
-11694 123 0
-11695 5899 0
-11695 124 0
-11696 5900 0
-11696 125 0
-11697 5901 0
-11697 126 0
11684 11685 11686 11687 11688 11689 11690 11691 11692 11693 11694 11695 11696 11697 0
-11698 5888 0
-11698 127 0
-11699 5889 0
-11699 128 0
-11700 5890 0
-11700 129 0
-11701 5891 0
-11701 130 0
-11702 5892 0
-11702 131 0
-11703 5893 0
-11703 132 0
-11704 5894 0
-11704 133 0
-11705 5895 0
-11705 134 0
-11706 5896 0
-11706 135 0
-11707 5897 0
-11707 136 0
-11708 5898 0
-11708 137 0
-11709 5899 0
-11709 138 0
-11710 5900 0
-11710 139 0
-11711 5901 0
-11711 140 0
11698 11699 11700 11701 11702 11703 11704 11705 11706 11707 11708 11709 11710 11711 0
-11712 5888 0
-11712 141 0
-11713 5889 0
-11713 142 0
-11714 5890 0
-11714 143 0
-11715 5891 0
-11715 144 0
-11716 5892 0
-11716 145 0
-11717 5893 0
-11717 146 0
-11718 5894 0
-11718 147 0
-11719 5895 0
-11719 148 0
-11720 5896 0
-11720 149 0
-11721 5897 0
-11721 150 0
-11722 5898 0
-11722 151 0
-11723 5899 0
-11723 152 0
-11724 5900 0
-11724 153 0
-11725 5901 0
-11725 154 0
11712 11713 11714 11715 11716 11717 11718 11719 11720 11721 11722 11723 11724 11725 0
-11726 5888 0
-11726 155 0
-11727 5889 0
-11727 156 0
-11728 5890 0
-11728 157 0
-11729 5891 0
-11729 158 0
-11730 5892 0
-11730 159 0
-11731 5893 0
-11731 160 0
-11732 5894 0
-11732 161 0
-11733 5895 0
-11733 162 0
-11734 5896 0
-11734 163 0
-11735 5897 0
-11735 164 0
-11736 5898 0
-11736 165 0
-11737 5899 0
-11737 166 0
-11738 5900 0
-11738 167 0
-11739 5901 0
-11739 168 0
11726 11727 11728 11729 11730 11731 11732 11733 11734 11735 11736 11737 11738 11739 0
-11740 5888 0
-11740 169 0
-11741 5889 0
-11741 170 0
-11742 5890 0
-11742 171 0
-11743 5891 0
-11743 172 0
-11744 5892 0
-11744 173 0
-11745 5893 0
-11745 174 0
-11746 5894 0
-11746 175 0
-11747 5895 0
-11747 176 0
-11748 5896 0
-11748 177 0
-11749 5897 0
-11749 178 0
-11750 5898 0
-11750 179 0
-11751 5899 0
-11751 180 0
-11752 5900 0
-11752 181 0
-11753 5901 0
-11753 182 0
11740 11741 11742 11743 11744 11745 11746 11747 11748 11749 11750 11751 11752 11753 0
-11754 5888 0
-11754 183 0
-11755 5889 0
-11755 184 0
-11756 5890 0
-11756 185 0
-11757 5891 0
-11757 186 0
-11758 5892 0
-11758 187 0
-11759 5893 0
-11759 188 0
-11760 5894 0
-11760 189 0
-11761 5895 0
-11761 190 0
-11762 5896 0
-11762 191 0
-11763 5897 0
-11763 192 0
-11764 5898 0
-11764 193 0
-11765 5899 0
-11765 194 0
-11766 5900 0
-11766 195 0
-11767 5901 0
-11767 196 0
11754 11755 11756 11757 11758 11759 11760 11761 11762 11763 11764 11765 11766 11767 0
-11768 5941 0
-11768 127 0
-11769 5942 0
-11769 128 0
-11770 5943 0
-11770 129 0
-11771 5944 0
-11771 130 0
-11772 5945 0
-11772 131 0
-11773 5946 0
-11773 132 0
-11774 5947 0
-11774 133 0
-11775 5948 0
-11775 134 0
-11776 5949 0
-11776 135 0
-11777 5950 0
-11777 136 0
-11778 5951 0
-11778 137 0
-11779 5952 0
-11779 138 0
-11780 5953 0
-11780 139 0
-11781 5954 0
-11781 140 0
11768 11769 11770 11771 11772 11773 11774 11775 11776 11777 11778 11779 11780 11781 0
-11782 5941 0
-11782 141 0
-11783 5942 0
-11783 142 0
-11784 5943 0
-11784 143 0
-11785 5944 0
-11785 144 0
-11786 5945 0
-11786 145 0
-11787 5946 0
-11787 146 0
-11788 5947 0
-11788 147 0
-11789 5948 0
-11789 148 0
-11790 5949 0
-11790 149 0
-11791 5950 0
-11791 150 0
-11792 5951 0
-11792 151 0
-11793 5952 0
-11793 152 0
-11794 5953 0
-11794 153 0
-11795 5954 0
-11795 154 0
11782 11783 11784 11785 11786 11787 11788 11789 11790 11791 11792 11793 11794 11795 0
-11796 5941 0
-11796 155 0
-11797 5942 0
-11797 156 0
-11798 5943 0
-11798 157 0
-11799 5944 0
-11799 158 0
-11800 5945 0
-11800 159 0
-11801 5946 0
-11801 160 0
-11802 5947 0
-11802 161 0
-11803 5948 0
-11803 162 0
-11804 5949 0
-11804 163 0
-11805 5950 0
-11805 164 0
-11806 5951 0
-11806 165 0
-11807 5952 0
-11807 166 0
-11808 5953 0
-11808 167 0
-11809 5954 0
-11809 168 0
11796 11797 11798 11799 11800 11801 11802 11803 11804 11805 11806 11807 11808 11809 0
-11810 5941 0
-11810 169 0
-11811 5942 0
-11811 170 0
-11812 5943 0
-11812 171 0
-11813 5944 0
-11813 172 0
-11814 5945 0
-11814 173 0
-11815 5946 0
-11815 174 0
-11816 5947 0
-11816 175 0
-11817 5948 0
-11817 176 0
-11818 5949 0
-11818 177 0
-11819 5950 0
-11819 178 0
-11820 5951 0
-11820 179 0
-11821 5952 0
-11821 180 0
-11822 5953 0
-11822 181 0
-11823 5954 0
-11823 182 0
11810 11811 11812 11813 11814 11815 11816 11817 11818 11819 11820 11821 11822 11823 0
-11824 5941 0
-11824 183 0
-11825 5942 0
-11825 184 0
-11826 5943 0
-11826 185 0
-11827 5944 0
-11827 186 0
-11828 5945 0
-11828 187 0
-11829 5946 0
-11829 188 0
-11830 5947 0
-11830 189 0
-11831 5948 0
-11831 190 0
-11832 5949 0
-11832 191 0
-11833 5950 0
-11833 192 0
-11834 5951 0
-11834 193 0
-11835 5952 0
-11835 194 0
-11836 5953 0
-11836 195 0
-11837 5954 0
-11837 196 0
11824 11825 11826 11827 11828 11829 11830 11831 11832 11833 11834 11835 11836 11837 0
-11838 5994 0
-11838 141 0
-11839 5995 0
-11839 142 0
-11840 5996 0
-11840 143 0
-11841 5997 0
-11841 144 0
-11842 5998 0
-11842 145 0
-11843 5999 0
-11843 146 0
-11844 6000 0
-11844 147 0
-11845 6001 0
-11845 148 0
-11846 6002 0
-11846 149 0
-11847 6003 0
-11847 150 0
-11848 6004 0
-11848 151 0
-11849 6005 0
-11849 152 0
-11850 6006 0
-11850 153 0
-11851 6007 0
-11851 154 0
11838 11839 11840 11841 11842 11843 11844 11845 11846 11847 11848 11849 11850 11851 0
-11852 5994 0
-11852 155 0
-11853 5995 0
-11853 156 0
-11854 5996 0
-11854 157 0
-11855 5997 0
-11855 158 0
-11856 5998 0
-11856 159 0
-11857 5999 0
-11857 160 0
-11858 6000 0
-11858 161 0
-11859 6001 0
-11859 162 0
-11860 6002 0
-11860 163 0
-11861 6003 0
-11861 164 0
-11862 6004 0
-11862 165 0
-11863 6005 0
-11863 166 0
-11864 6006 0
-11864 167 0
-11865 6007 0
-11865 168 0
11852 11853 11854 11855 11856 11857 11858 11859 11860 11861 11862 11863 11864 11865 0
-11866 5994 0
-11866 169 0
-11867 5995 0
-11867 170 0
-11868 5996 0
-11868 171 0
-11869 5997 0
-11869 172 0
-11870 5998 0
-11870 173 0
-11871 5999 0
-11871 174 0
-11872 6000 0
-11872 175 0
-11873 6001 0
-11873 176 0
-11874 6002 0
-11874 177 0
-11875 6003 0
-11875 178 0
-11876 6004 0
-11876 179 0
-11877 6005 0
-11877 180 0
-11878 6006 0
-11878 181 0
-11879 6007 0
-11879 182 0
11866 11867 11868 11869 11870 11871 11872 11873 11874 11875 11876 11877 11878 11879 0
-11880 5994 0
-11880 183 0
-11881 5995 0
-11881 184 0
-11882 5996 0
-11882 185 0
-11883 5997 0
-11883 186 0
-11884 5998 0
-11884 187 0
-11885 5999 0
-11885 188 0
-11886 6000 0
-11886 189 0
-11887 6001 0
-11887 190 0
-11888 6002 0
-11888 191 0
-11889 6003 0
-11889 192 0
-11890 6004 0
-11890 193 0
-11891 6005 0
-11891 194 0
-11892 6006 0
-11892 195 0
-11893 6007 0
-11893 196 0
11880 11881 11882 11883 11884 11885 11886 11887 11888 11889 11890 11891 11892 11893 0
-11894 6047 0
-11894 155 0
-11895 6048 0
-11895 156 0
-11896 6049 0
-11896 157 0
-11897 6050 0
-11897 158 0
-11898 6051 0
-11898 159 0
-11899 6052 0
-11899 160 0
-11900 6053 0
-11900 161 0
-11901 6054 0
-11901 162 0
-11902 6055 0
-11902 163 0
-11903 6056 0
-11903 164 0
-11904 6057 0
-11904 165 0
-11905 6058 0
-11905 166 0
-11906 6059 0
-11906 167 0
-11907 6060 0
-11907 168 0
11894 11895 11896 11897 11898 11899 11900 11901 11902 11903 11904 11905 11906 11907 0
-11908 6047 0
-11908 169 0
-11909 6048 0
-11909 170 0
-11910 6049 0
-11910 171 0
-11911 6050 0
-11911 172 0
-11912 6051 0
-11912 173 0
-11913 6052 0
-11913 174 0
-11914 6053 0
-11914 175 0
-11915 6054 0
-11915 176 0
-11916 6055 0
-11916 177 0
-11917 6056 0
-11917 178 0
-11918 6057 0
-11918 179 0
-11919 6058 0
-11919 180 0
-11920 6059 0
-11920 181 0
-11921 6060 0
-11921 182 0
11908 11909 11910 11911 11912 11913 11914 11915 11916 11917 11918 11919 11920 11921 0
-11922 6047 0
-11922 183 0
-11923 6048 0
-11923 184 0
-11924 6049 0
-11924 185 0
-11925 6050 0
-11925 186 0
-11926 6051 0
-11926 187 0
-11927 6052 0
-11927 188 0
-11928 6053 0
-11928 189 0
-11929 6054 0
-11929 190 0
-11930 6055 0
-11930 191 0
-11931 6056 0
-11931 192 0
-11932 6057 0
-11932 193 0
-11933 6058 0
-11933 194 0
-11934 6059 0
-11934 195 0
-11935 6060 0
-11935 196 0
11922 11923 11924 11925 11926 11927 11928 11929 11930 11931 11932 11933 11934 11935 0
-11936 6100 0
-11936 169 0
-11937 6101 0
-11937 170 0
-11938 6102 0
-11938 171 0
-11939 6103 0
-11939 172 0
-11940 6104 0
-11940 173 0
-11941 6105 0
-11941 174 0
-11942 6106 0
-11942 175 0
-11943 6107 0
-11943 176 0
-11944 6108 0
-11944 177 0
-11945 6109 0
-11945 178 0
-11946 6110 0
-11946 179 0
-11947 6111 0
-11947 180 0
-11948 6112 0
-11948 181 0
-11949 6113 0
-11949 182 0
11936 11937 11938 11939 11940 11941 11942 11943 11944 11945 11946 11947 11948 11949 0
-11950 6100 0
-11950 183 0
-11951 6101 0
-11951 184 0
-11952 6102 0
-11952 185 0
-11953 6103 0
-11953 186 0
-11954 6104 0
-11954 187 0
-11955 6105 0
-11955 188 0
-11956 6106 0
-11956 189 0
-11957 6107 0
-11957 190 0
-11958 6108 0
-11958 191 0
-11959 6109 0
-11959 192 0
-11960 6110 0
-11960 193 0
-11961 6111 0
-11961 194 0
-11962 6112 0
-11962 195 0
-11963 6113 0
-11963 196 0
11950 11951 11952 11953 11954 11955 11956 11957 11958 11959 11960 11961 11962 11963 0
-11964 6153 0
-11964 183 0
-11965 6154 0
-11965 184 0
-11966 6155 0
-11966 185 0
-11967 6156 0
-11967 186 0
-11968 6157 0
-11968 187 0
-11969 6158 0
-11969 188 0
-11970 6159 0
-11970 189 0
-11971 6160 0
-11971 190 0
-11972 6161 0
-11972 191 0
-11973 6162 0
-11973 192 0
-11974 6163 0
-11974 193 0
-11975 6164 0
-11975 194 0
-11976 6165 0
-11976 195 0
-11977 6166 0
-11977 196 0
11964 11965 11966 11967 11968 11969 11970 11971 11972 11973 11974 11975 11976 11977 0
-11978 6259 0
-11978 127 0
-11979 6260 0
-11979 128 0
-11980 6261 0
-11980 129 0
-11981 6262 0
-11981 130 0
-11982 6263 0
-11982 131 0
-11983 6264 0
-11983 132 0
-11984 6265 0
-11984 133 0
-11985 6266 0
-11985 134 0
-11986 6267 0
-11986 135 0
-11987 6268 0
-11987 136 0
-11988 6269 0
-11988 137 0
-11989 6270 0
-11989 138 0
-11990 6271 0
-11990 139 0
-11991 6272 0
-11991 140 0
11978 11979 11980 11981 11982 11983 11984 11985 11986 11987 11988 11989 11990 11991 0
-11992 6259 0
-11992 141 0
-11993 6260 0
-11993 142 0
-11994 6261 0
-11994 143 0
-11995 6262 0
-11995 144 0
-11996 6263 0
-11996 145 0
-11997 6264 0
-11997 146 0
-11998 6265 0
-11998 147 0
-11999 6266 0
-11999 148 0
-12000 6267 0
-12000 149 0
-12001 6268 0
-12001 150 0
-12002 6269 0
-12002 151 0
-12003 6270 0
-12003 152 0
-12004 6271 0
-12004 153 0
-12005 6272 0
-12005 154 0
11992 11993 11994 11995 11996 11997 11998 11999 12000 12001 12002 12003 12004 12005 0
-12006 6259 0
-12006 155 0
-12007 6260 0
-12007 156 0
-12008 6261 0
-12008 157 0
-12009 6262 0
-12009 158 0
-12010 6263 0
-12010 159 0
-12011 6264 0
-12011 160 0
-12012 6265 0
-12012 161 0
-12013 6266 0
-12013 162 0
-12014 6267 0
-12014 163 0
-12015 6268 0
-12015 164 0
-12016 6269 0
-12016 165 0
-12017 6270 0
-12017 166 0
-12018 6271 0
-12018 167 0
-12019 6272 0
-12019 168 0
12006 12007 12008 12009 12010 12011 12012 12013 12014 12015 12016 12017 12018 12019 0
-12020 6259 0
-12020 169 0
-12021 6260 0
-12021 170 0
-12022 6261 0
-12022 171 0
-12023 6262 0
-12023 172 0
-12024 6263 0
-12024 173 0
-12025 6264 0
-12025 174 0
-12026 6265 0
-12026 175 0
-12027 6266 0
-12027 176 0
-12028 6267 0
-12028 177 0
-12029 6268 0
-12029 178 0
-12030 6269 0
-12030 179 0
-12031 6270 0
-12031 180 0
-12032 6271 0
-12032 181 0
-12033 6272 0
-12033 182 0
12020 12021 12022 12023 12024 12025 12026 12027 12028 12029 12030 12031 12032 12033 0
-12034 6259 0
-12034 183 0
-12035 6260 0
-12035 184 0
-12036 6261 0
-12036 185 0
-12037 6262 0
-12037 186 0
-12038 6263 0
-12038 187 0
-12039 6264 0
-12039 188 0
-12040 6265 0
-12040 189 0
-12041 6266 0
-12041 190 0
-12042 6267 0
-12042 191 0
-12043 6268 0
-12043 192 0
-12044 6269 0
-12044 193 0
-12045 6270 0
-12045 194 0
-12046 6271 0
-12046 195 0
-12047 6272 0
-12047 196 0
12034 12035 12036 12037 12038 12039 12040 12041 12042 12043 12044 12045 12046 12047 0
-12048 6312 0
-12048 141 0
-12049 6313 0
-12049 142 0
-12050 6314 0
-12050 143 0
-12051 6315 0
-12051 144 0
-12052 6316 0
-12052 145 0
-12053 6317 0
-12053 146 0
-12054 6318 0
-12054 147 0
-12055 6319 0
-12055 148 0
-12056 6320 0
-12056 149 0
-12057 6321 0
-12057 150 0
-12058 6322 0
-12058 151 0
-12059 6323 0
-12059 152 0
-12060 6324 0
-12060 153 0
-12061 6325 0
-12061 154 0
12048 12049 12050 12051 12052 12053 12054 12055 12056 12057 12058 12059 12060 12061 0
-12062 6312 0
-12062 155 0
-12063 6313 0
-12063 156 0
-12064 6314 0
-12064 157 0
-12065 6315 0
-12065 158 0
-12066 6316 0
-12066 159 0
-12067 6317 0
-12067 160 0
-12068 6318 0
-12068 161 0
-12069 6319 0
-12069 162 0
-12070 6320 0
-12070 163 0
-12071 6321 0
-12071 164 0
-12072 6322 0
-12072 165 0
-12073 6323 0
-12073 166 0
-12074 6324 0
-12074 167 0
-12075 6325 0
-12075 168 0
12062 12063 12064 12065 12066 12067 12068 12069 12070 12071 12072 12073 12074 12075 0
-12076 6312 0
-12076 169 0
-12077 6313 0
-12077 170 0
-12078 6314 0
-12078 171 0
-12079 6315 0
-12079 172 0
-12080 6316 0
-12080 173 0
-12081 6317 0
-12081 174 0
-12082 6318 0
-12082 175 0
-12083 6319 0
-12083 176 0
-12084 6320 0
-12084 177 0
-12085 6321 0
-12085 178 0
-12086 6322 0
-12086 179 0
-12087 6323 0
-12087 180 0
-12088 6324 0
-12088 181 0
-12089 6325 0
-12089 182 0
12076 12077 12078 12079 12080 12081 12082 12083 12084 12085 12086 12087 12088 12089 0
-12090 6312 0
-12090 183 0
-12091 6313 0
-12091 184 0
-12092 6314 0
-12092 185 0
-12093 6315 0
-12093 186 0
-12094 6316 0
-12094 187 0
-12095 6317 0
-12095 188 0
-12096 6318 0
-12096 189 0
-12097 6319 0
-12097 190 0
-12098 6320 0
-12098 191 0
-12099 6321 0
-12099 192 0
-12100 6322 0
-12100 193 0
-12101 6323 0
-12101 194 0
-12102 6324 0
-12102 195 0
-12103 6325 0
-12103 196 0
12090 12091 12092 12093 12094 12095 12096 12097 12098 12099 12100 12101 12102 12103 0
-12104 6365 0
-12104 155 0
-12105 6366 0
-12105 156 0
-12106 6367 0
-12106 157 0
-12107 6368 0
-12107 158 0
-12108 6369 0
-12108 159 0
-12109 6370 0
-12109 160 0
-12110 6371 0
-12110 161 0
-12111 6372 0
-12111 162 0
-12112 6373 0
-12112 163 0
-12113 6374 0
-12113 164 0
-12114 6375 0
-12114 165 0
-12115 6376 0
-12115 166 0
-12116 6377 0
-12116 167 0
-12117 6378 0
-12117 168 0
12104 12105 12106 12107 12108 12109 12110 12111 12112 12113 12114 12115 12116 12117 0
-12118 6365 0
-12118 169 0
-12119 6366 0
-12119 170 0
-12120 6367 0
-12120 171 0
-12121 6368 0
-12121 172 0
-12122 6369 0
-12122 173 0
-12123 6370 0
-12123 174 0
-12124 6371 0
-12124 175 0
-12125 6372 0
-12125 176 0
-12126 6373 0
-12126 177 0
-12127 6374 0
-12127 178 0
-12128 6375 0
-12128 179 0
-12129 6376 0
-12129 180 0
-12130 6377 0
-12130 181 0
-12131 6378 0
-12131 182 0
12118 12119 12120 12121 12122 12123 12124 12125 12126 12127 12128 12129 12130 12131 0
-12132 6365 0
-12132 183 0
-12133 6366 0
-12133 184 0
-12134 6367 0
-12134 185 0
-12135 6368 0
-12135 186 0
-12136 6369 0
-12136 187 0
-12137 6370 0
-12137 188 0
-12138 6371 0
-12138 189 0
-12139 6372 0
-12139 190 0
-12140 6373 0
-12140 191 0
-12141 6374 0
-12141 192 0
-12142 6375 0
-12142 193 0
-12143 6376 0
-12143 194 0
-12144 6377 0
-12144 195 0
-12145 6378 0
-12145 196 0
12132 12133 12134 12135 12136 12137 12138 12139 12140 12141 12142 12143 12144 12145 0
-12146 6418 0
-12146 169 0
-12147 6419 0
-12147 170 0
-12148 6420 0
-12148 171 0
-12149 6421 0
-12149 172 0
-12150 6422 0
-12150 173 0
-12151 6423 0
-12151 174 0
-12152 6424 0
-12152 175 0
-12153 6425 0
-12153 176 0
-12154 6426 0
-12154 177 0
-12155 6427 0
-12155 178 0
-12156 6428 0
-12156 179 0
-12157 6429 0
-12157 180 0
-12158 6430 0
-12158 181 0
-12159 6431 0
-12159 182 0
12146 12147 12148 12149 12150 12151 12152 12153 12154 12155 12156 12157 12158 12159 0
-12160 6418 0
-12160 183 0
-12161 6419 0
-12161 184 0
-12162 6420 0
-12162 185 0
-12163 6421 0
-12163 186 0
-12164 6422 0
-12164 187 0
-12165 6423 0
-12165 188 0
-12166 6424 0
-12166 189 0
-12167 6425 0
-12167 190 0
-12168 6426 0
-12168 191 0
-12169 6427 0
-12169 192 0
-12170 6428 0
-12170 193 0
-12171 6429 0
-12171 194 0
-12172 6430 0
-12172 195 0
-12173 6431 0
-12173 196 0
12160 12161 12162 12163 12164 12165 12166 12167 12168 12169 12170 12171 12172 12173 0
-12174 6471 0
-12174 183 0
-12175 6472 0
-12175 184 0
-12176 6473 0
-12176 185 0
-12177 6474 0
-12177 186 0
-12178 6475 0
-12178 187 0
-12179 6476 0
-12179 188 0
-12180 6477 0
-12180 189 0
-12181 6478 0
-12181 190 0
-12182 6479 0
-12182 191 0
-12183 6480 0
-12183 192 0
-12184 6481 0
-12184 193 0
-12185 6482 0
-12185 194 0
-12186 6483 0
-12186 195 0
-12187 6484 0
-12187 196 0
12174 12175 12176 12177 12178 12179 12180 12181 12182 12183 12184 12185 12186 12187 0
-12188 6577 0
-12188 141 0
-12189 6578 0
-12189 142 0
-12190 6579 0
-12190 143 0
-12191 6580 0
-12191 144 0
-12192 6581 0
-12192 145 0
-12193 6582 0
-12193 146 0
-12194 6583 0
-12194 147 0
-12195 6584 0
-12195 148 0
-12196 6585 0
-12196 149 0
-12197 6586 0
-12197 150 0
-12198 6587 0
-12198 151 0
-12199 6588 0
-12199 152 0
-12200 6589 0
-12200 153 0
-12201 6590 0
-12201 154 0
12188 12189 12190 12191 12192 12193 12194 12195 12196 12197 12198 12199 12200 12201 0
-12202 6577 0
-12202 155 0
-12203 6578 0
-12203 156 0
-12204 6579 0
-12204 157 0
-12205 6580 0
-12205 158 0
-12206 6581 0
-12206 159 0
-12207 6582 0
-12207 160 0
-12208 6583 0
-12208 161 0
-12209 6584 0
-12209 162 0
-12210 6585 0
-12210 163 0
-12211 6586 0
-12211 164 0
-12212 6587 0
-12212 165 0
-12213 6588 0
-12213 166 0
-12214 6589 0
-12214 167 0
-12215 6590 0
-12215 168 0
12202 12203 12204 12205 12206 12207 12208 12209 12210 12211 12212 12213 12214 12215 0
-12216 6577 0
-12216 169 0
-12217 6578 0
-12217 170 0
-12218 6579 0
-12218 171 0
-12219 6580 0
-12219 172 0
-12220 6581 0
-12220 173 0
-12221 6582 0
-12221 174 0
-12222 6583 0
-12222 175 0
-12223 6584 0
-12223 176 0
-12224 6585 0
-12224 177 0
-12225 6586 0
-12225 178 0
-12226 6587 0
-12226 179 0
-12227 6588 0
-12227 180 0
-12228 6589 0
-12228 181 0
-12229 6590 0
-12229 182 0
12216 12217 12218 12219 12220 12221 12222 12223 12224 12225 12226 12227 12228 12229 0
-12230 6577 0
-12230 183 0
-12231 6578 0
-12231 184 0
-12232 6579 0
-12232 185 0
-12233 6580 0
-12233 186 0
-12234 6581 0
-12234 187 0
-12235 6582 0
-12235 188 0
-12236 6583 0
-12236 189 0
-12237 6584 0
-12237 190 0
-12238 6585 0
-12238 191 0
-12239 6586 0
-12239 192 0
-12240 6587 0
-12240 193 0
-12241 6588 0
-12241 194 0
-12242 6589 0
-12242 195 0
-12243 6590 0
-12243 196 0
12230 12231 12232 12233 12234 12235 12236 12237 12238 12239 12240 12241 12242 12243 0
-12244 6630 0
-12244 155 0
-12245 6631 0
-12245 156 0
-12246 6632 0
-12246 157 0
-12247 6633 0
-12247 158 0
-12248 6634 0
-12248 159 0
-12249 6635 0
-12249 160 0
-12250 6636 0
-12250 161 0
-12251 6637 0
-12251 162 0
-12252 6638 0
-12252 163 0
-12253 6639 0
-12253 164 0
-12254 6640 0
-12254 165 0
-12255 6641 0
-12255 166 0
-12256 6642 0
-12256 167 0
-12257 6643 0
-12257 168 0
12244 12245 12246 12247 12248 12249 12250 12251 12252 12253 12254 12255 12256 12257 0
-12258 6630 0
-12258 169 0
-12259 6631 0
-12259 170 0
-12260 6632 0
-12260 171 0
-12261 6633 0
-12261 172 0
-12262 6634 0
-12262 173 0
-12263 6635 0
-12263 174 0
-12264 6636 0
-12264 175 0
-12265 6637 0
-12265 176 0
-12266 6638 0
-12266 177 0
-12267 6639 0
-12267 178 0
-12268 6640 0
-12268 179 0
-12269 6641 0
-12269 180 0
-12270 6642 0
-12270 181 0
-12271 6643 0
-12271 182 0
12258 12259 12260 12261 12262 12263 12264 12265 12266 12267 12268 12269 12270 12271 0
-12272 6630 0
-12272 183 0
-12273 6631 0
-12273 184 0
-12274 6632 0
-12274 185 0
-12275 6633 0
-12275 186 0
-12276 6634 0
-12276 187 0
-12277 6635 0
-12277 188 0
-12278 6636 0
-12278 189 0
-12279 6637 0
-12279 190 0
-12280 6638 0
-12280 191 0
-12281 6639 0
-12281 192 0
-12282 6640 0
-12282 193 0
-12283 6641 0
-12283 194 0
-12284 6642 0
-12284 195 0
-12285 6643 0
-12285 196 0
12272 12273 12274 12275 12276 12277 12278 12279 12280 12281 12282 12283 12284 12285 0
-12286 6683 0
-12286 169 0
-12287 6684 0
-12287 170 0
-12288 6685 0
-12288 171 0
-12289 6686 0
-12289 172 0
-12290 6687 0
-12290 173 0
-12291 6688 0
-12291 174 0
-12292 6689 0
-12292 175 0
-12293 6690 0
-12293 176 0
-12294 6691 0
-12294 177 0
-12295 6692 0
-12295 178 0
-12296 6693 0
-12296 179 0
-12297 6694 0
-12297 180 0
-12298 6695 0
-12298 181 0
-12299 6696 0
-12299 182 0
12286 12287 12288 12289 12290 12291 12292 12293 12294 12295 12296 12297 12298 12299 0
-12300 6683 0
-12300 183 0
-12301 6684 0
-12301 184 0
-12302 6685 0
-12302 185 0
-12303 6686 0
-12303 186 0
-12304 6687 0
-12304 187 0
-12305 6688 0
-12305 188 0
-12306 6689 0
-12306 189 0
-12307 6690 0
-12307 190 0
-12308 6691 0
-12308 191 0
-12309 6692 0
-12309 192 0
-12310 6693 0
-12310 193 0
-12311 6694 0
-12311 194 0
-12312 6695 0
-12312 195 0
-12313 6696 0
-12313 196 0
12300 12301 12302 12303 12304 12305 12306 12307 12308 12309 12310 12311 12312 12313 0
-12314 6736 0
-12314 183 0
-12315 6737 0
-12315 184 0
-12316 6738 0
-12316 185 0
-12317 6739 0
-12317 186 0
-12318 6740 0
-12318 187 0
-12319 6741 0
-12319 188 0
-12320 6742 0
-12320 189 0
-12321 6743 0
-12321 190 0
-12322 6744 0
-12322 191 0
-12323 6745 0
-12323 192 0
-12324 6746 0
-12324 193 0
-12325 6747 0
-12325 194 0
-12326 6748 0
-12326 195 0
-12327 6749 0
-12327 196 0
12314 12315 12316 12317 12318 12319 12320 12321 12322 12323 12324 12325 12326 12327 0
-12328 6842 0
-12328 155 0
-12329 6843 0
-12329 156 0
-12330 6844 0
-12330 157 0
-12331 6845 0
-12331 158 0
-12332 6846 0
-12332 159 0
-12333 6847 0
-12333 160 0
-12334 6848 0
-12334 161 0
-12335 6849 0
-12335 162 0
-12336 6850 0
-12336 163 0
-12337 6851 0
-12337 164 0
-12338 6852 0
-12338 165 0
-12339 6853 0
-12339 166 0
-12340 6854 0
-12340 167 0
-12341 6855 0
-12341 168 0
12328 12329 12330 12331 12332 12333 12334 12335 12336 12337 12338 12339 12340 12341 0
-12342 6842 0
-12342 169 0
-12343 6843 0
-12343 170 0
-12344 6844 0
-12344 171 0
-12345 6845 0
-12345 172 0
-12346 6846 0
-12346 173 0
-12347 6847 0
-12347 174 0
-12348 6848 0
-12348 175 0
-12349 6849 0
-12349 176 0
-12350 6850 0
-12350 177 0
-12351 6851 0
-12351 178 0
-12352 6852 0
-12352 179 0
-12353 6853 0
-12353 180 0
-12354 6854 0
-12354 181 0
-12355 6855 0
-12355 182 0
12342 12343 12344 12345 12346 12347 12348 12349 12350 12351 12352 12353 12354 12355 0
-12356 6842 0
-12356 183 0
-12357 6843 0
-12357 184 0
-12358 6844 0
-12358 185 0
-12359 6845 0
-12359 186 0
-12360 6846 0
-12360 187 0
-12361 6847 0
-12361 188 0
-12362 6848 0
-12362 189 0
-12363 6849 0
-12363 190 0
-12364 6850 0
-12364 191 0
-12365 6851 0
-12365 192 0
-12366 6852 0
-12366 193 0
-12367 6853 0
-12367 194 0
-12368 6854 0
-12368 195 0
-12369 6855 0
-12369 196 0
12356 12357 12358 12359 12360 12361 12362 12363 12364 12365 12366 12367 12368 12369 0
-12370 6895 0
-12370 169 0
-12371 6896 0
-12371 170 0
-12372 6897 0
-12372 171 0
-12373 6898 0
-12373 172 0
-12374 6899 0
-12374 173 0
-12375 6900 0
-12375 174 0
-12376 6901 0
-12376 175 0
-12377 6902 0
-12377 176 0
-12378 6903 0
-12378 177 0
-12379 6904 0
-12379 178 0
-12380 6905 0
-12380 179 0
-12381 6906 0
-12381 180 0
-12382 6907 0
-12382 181 0
-12383 6908 0
-12383 182 0
12370 12371 12372 12373 12374 12375 12376 12377 12378 12379 12380 12381 12382 12383 0
-12384 6895 0
-12384 183 0
-12385 6896 0
-12385 184 0
-12386 6897 0
-12386 185 0
-12387 6898 0
-12387 186 0
-12388 6899 0
-12388 187 0
-12389 6900 0
-12389 188 0
-12390 6901 0
-12390 189 0
-12391 6902 0
-12391 190 0
-12392 6903 0
-12392 191 0
-12393 6904 0
-12393 192 0
-12394 6905 0
-12394 193 0
-12395 6906 0
-12395 194 0
-12396 6907 0
-12396 195 0
-12397 6908 0
-12397 196 0
12384 12385 12386 12387 12388 12389 12390 12391 12392 12393 12394 12395 12396 12397 0
-12398 6948 0
-12398 183 0
-12399 6949 0
-12399 184 0
-12400 6950 0
-12400 185 0
-12401 6951 0
-12401 186 0
-12402 6952 0
-12402 187 0
-12403 6953 0
-12403 188 0
-12404 6954 0
-12404 189 0
-12405 6955 0
-12405 190 0
-12406 6956 0
-12406 191 0
-12407 6957 0
-12407 192 0
-12408 6958 0
-12408 193 0
-12409 6959 0
-12409 194 0
-12410 6960 0
-12410 195 0
-12411 6961 0
-12411 196 0
12398 12399 12400 12401 12402 12403 12404 12405 12406 12407 12408 12409 12410 12411 0
-12412 7054 0
-12412 169 0
-12413 7055 0
-12413 170 0
-12414 7056 0
-12414 171 0
-12415 7057 0
-12415 172 0
-12416 7058 0
-12416 173 0
-12417 7059 0
-12417 174 0
-12418 7060 0
-12418 175 0
-12419 7061 0
-12419 176 0
-12420 7062 0
-12420 177 0
-12421 7063 0
-12421 178 0
-12422 7064 0
-12422 179 0
-12423 7065 0
-12423 180 0
-12424 7066 0
-12424 181 0
-12425 7067 0
-12425 182 0
12412 12413 12414 12415 12416 12417 12418 12419 12420 12421 12422 12423 12424 12425 0
-12426 7054 0
-12426 183 0
-12427 7055 0
-12427 184 0
-12428 7056 0
-12428 185 0
-12429 7057 0
-12429 186 0
-12430 7058 0
-12430 187 0
-12431 7059 0
-12431 188 0
-12432 7060 0
-12432 189 0
-12433 7061 0
-12433 190 0
-12434 7062 0
-12434 191 0
-12435 7063 0
-12435 192 0
-12436 7064 0
-12436 193 0
-12437 7065 0
-12437 194 0
-12438 7066 0
-12438 195 0
-12439 7067 0
-12439 196 0
12426 12427 12428 12429 12430 12431 12432 12433 12434 12435 12436 12437 12438 12439 0
-12440 7107 0
-12440 183 0
-12441 7108 0
-12441 184 0
-12442 7109 0
-12442 185 0
-12443 7110 0
-12443 186 0
-12444 7111 0
-12444 187 0
-12445 7112 0
-12445 188 0
-12446 7113 0
-12446 189 0
-12447 7114 0
-12447 190 0
-12448 7115 0
-12448 191 0
-12449 7116 0
-12449 192 0
-12450 7117 0
-12450 193 0
-12451 7118 0
-12451 194 0
-12452 7119 0
-12452 195 0
-12453 7120 0
-12453 196 0
12440 12441 12442 12443 12444 12445 12446 12447 12448 12449 12450 12451 12452 12453 0
-12454 7213 0
-12454 183 0
-12455 7214 0
-12455 184 0
-12456 7215 0
-12456 185 0
-12457 7216 0
-12457 186 0
-12458 7217 0
-12458 187 0
-12459 7218 0
-12459 188 0
-12460 7219 0
-12460 189 0
-12461 7220 0
-12461 190 0
-12462 7221 0
-12462 191 0
-12463 7222 0
-12463 192 0
-12464 7223 0
-12464 193 0
-12465 7224 0
-12465 194 0
-12466 7225 0
-12466 195 0
-12467 7226 0
-12467 196 0
12454 12455 12456 12457 12458 12459 12460 12461 12462 12463 12464 12465 12466 12467 0
1 0
15 0
2 0
16 0
3 0
17 0
4 0
-18 0
5 0
-19 0
6 0
-20 0
7 0
-21 0
-8 0
22 0
-9 0
23 0
-10 0
24 0
-11 0
25 0
-12 0
-26 0
-13 0
-27 0
-14 0
-28 0
29 -43 0
29 43 12468 0
-29 -43 12468 0
-12468 30 -44 0
-12468 30 44 12469 0
-12468 -30 -44 12469 0
-12469 31 -45 0
-12469 31 45 12470 0
-12469 -31 -45 12470 0
-12470 32 -46 0
-12470 32 46 12471 0
-12470 -32 -46 12471 0
-12471 33 -47 0
-12471 33 47 12472 0
-12471 -33 -47 12472 0
-12472 34 -48 0
-12472 34 48 12473 0
-12472 -34 -48 12473 0
-12473 35 -49 0
-12473 35 49 12474 0
-12473 -35 -49 12474 0
-12474 36 -50 0
-12474 36 50 12475 0
-12474 -36 -50 12475 0
-12475 37 -51 0
-12475 37 51 12476 0
-12475 -37 -51 12476 0
-12476 38 -52 0
-12476 38 52 12477 0
-12476 -38 -52 12477 0
-12477 39 -53 0
-12477 39 53 12478 0
-12477 -39 -53 12478 0
-12478 40 -54 0
-12478 40 54 12479 0
-12478 -40 -54 12479 0
-12479 41 -55 0
-12479 41 55 12480 0
-12479 -41 -55 12480 0
-12480 42 -56 0
43 -57 0
43 57 12481 0
-43 -57 12481 0
-12481 44 -58 0
-12481 44 58 12482 0
-12481 -44 -58 12482 0
-12482 45 -59 0
-12482 45 59 12483 0
-12482 -45 -59 12483 0
-12483 46 -60 0
-12483 46 60 12484 0
-12483 -46 -60 12484 0
-12484 47 -61 0
-12484 47 61 12485 0
-12484 -47 -61 12485 0
-12485 48 -62 0
-12485 48 62 12486 0
-12485 -48 -62 12486 0
-12486 49 -63 0
-12486 49 63 12487 0
-12486 -49 -63 12487 0
-12487 50 -64 0
-12487 50 64 12488 0
-12487 -50 -64 12488 0
-12488 51 -65 0
-12488 51 65 12489 0
-12488 -51 -65 12489 0
-12489 52 -66 0
-12489 52 66 12490 0
-12489 -52 -66 12490 0
-12490 53 -67 0
-12490 53 67 12491 0
-12490 -53 -67 12491 0
-12491 54 -68 0
-12491 54 68 12492 0
-12491 -54 -68 12492 0
-12492 55 -69 0
-12492 55 69 12493 0
-12492 -55 -69 12493 0
-12493 56 -70 0
57 -71 0
57 71 12494 0
-57 -71 12494 0
-12494 58 -72 0
-12494 58 72 12495 0
-12494 -58 -72 12495 0
-12495 59 -73 0
-12495 59 73 12496 0
-12495 -59 -73 12496 0
-12496 60 -74 0
-12496 60 74 12497 0
-12496 -60 -74 12497 0
-12497 61 -75 0
-12497 61 75 12498 0
-12497 -61 -75 12498 0
-12498 62 -76 0
-12498 62 76 12499 0
-12498 -62 -76 12499 0
-12499 63 -77 0
-12499 63 77 12500 0
-12499 -63 -77 12500 0
-12500 64 -78 0
-12500 64 78 12501 0
-12500 -64 -78 12501 0
-12501 65 -79 0
-12501 65 79 12502 0
-12501 -65 -79 12502 0
-12502 66 -80 0
-12502 66 80 12503 0
-12502 -66 -80 12503 0
-12503 67 -81 0
-12503 67 81 12504 0
-12503 -67 -81 12504 0
-12504 68 -82 0
-12504 68 82 12505 0
-12504 -68 -82 12505 0
-12505 69 -83 0
-12505 69 83 12506 0
-12505 -69 -83 12506 0
-12506 70 -84 0
71 -85 0
71 85 12507 0
-71 -85 12507 0
-12507 72 -86 0
-12507 72 86 12508 0
-12507 -72 -86 12508 0
-12508 73 -87 0
-12508 73 87 12509 0
-12508 -73 -87 12509 0
-12509 74 -88 0
-12509 74 88 12510 0
-12509 -74 -88 12510 0
-12510 75 -89 0
-12510 75 89 12511 0
-12510 -75 -89 12511 0
-12511 76 -90 0
-12511 76 90 12512 0
-12511 -76 -90 12512 0
-12512 77 -91 0
-12512 77 91 12513 0
-12512 -77 -91 12513 0
-12513 78 -92 0
-12513 78 92 12514 0
-12513 -78 -92 12514 0
-12514 79 -93 0
-12514 79 93 12515 0
-12514 -79 -93 12515 0
-12515 80 -94 0
-12515 80 94 12516 0
-12515 -80 -94 12516 0
-12516 81 -95 0
-12516 81 95 12517 0
-12516 -81 -95 12517 0
-12517 82 -96 0
-12517 82 96 12518 0
-12517 -82 -96 12518 0
-12518 83 -97 0
-12518 83 97 12519 0
-12518 -83 -97 12519 0
-12519 84 -98 0
85 -99 0
85 99 12520 0
-85 -99 12520 0
-12520 86 -100 0
-12520 86 100 12521 0
-12520 -86 -100 12521 0
-12521 87 -101 0
-12521 87 101 12522 0
-12521 -87 -101 12522 0
-12522 88 -102 0
-12522 88 102 12523 0
-12522 -88 -102 12523 0
-12523 89 -103 0
-12523 89 103 12524 0
-12523 -89 -103 12524 0
-12524 90 -104 0
-12524 90 104 12525 0
-12524 -90 -104 12525 0
-12525 91 -105 0
-12525 91 105 12526 0
-12525 -91 -105 12526 0
-12526 92 -106 0
-12526 92 106 12527 0
-12526 -92 -106 12527 0
-12527 93 -107 0
-12527 93 107 12528 0
-12527 -93 -107 12528 0
-12528 94 -108 0
-12528 94 108 12529 0
-12528 -94 -108 12529 0
-12529 95 -109 0
-12529 95 109 12530 0
-12529 -95 -109 12530 0
-12530 96 -110 0
-12530 96 110 12531 0
-12530 -96 -110 12531 0
-12531 97 -111 0
-12531 97 111 12532 0
-12531 -97 -111 12532 0
-12532 98 -112 0
99 -113 0
99 113 12533 0
-99 -113 12533 0
-12533 100 -114 0
-12533 100 114 12534 0
-12533 -100 -114 12534 0
-12534 101 -115 0
-12534 101 115 12535 0
-12534 -101 -115 12535 0
-12535 102 -116 0
-12535 102 116 12536 0
-12535 -102 -116 12536 0
-12536 103 -117 0
-12536 103 117 12537 0
-12536 -103 -117 12537 0
-12537 104 -118 0
-12537 104 118 12538 0
-12537 -104 -118 12538 0
-12538 105 -119 0
-12538 105 119 12539 0
-12538 -105 -119 12539 0
-12539 106 -120 0
-12539 106 120 12540 0
-12539 -106 -120 12540 0
-12540 107 -121 0
-12540 107 121 12541 0
-12540 -107 -121 12541 0
-12541 108 -122 0
-12541 108 122 12542 0
-12541 -108 -122 12542 0
-12542 109 -123 0
-12542 109 123 12543 0
-12542 -109 -123 12543 0
-12543 110 -124 0
-12543 110 124 12544 0
-12543 -110 -124 12544 0
-12544 111 -125 0
-12544 111 125 12545 0
-12544 -111 -125 12545 0
-12545 112 -126 0
113 -127 0
113 127 12546 0
-113 -127 12546 0
-12546 114 -128 0
-12546 114 128 12547 0
-12546 -114 -128 12547 0
-12547 115 -129 0
-12547 115 129 12548 0
-12547 -115 -129 12548 0
-12548 116 -130 0
-12548 116 130 12549 0
-12548 -116 -130 12549 0
-12549 117 -131 0
-12549 117 131 12550 0
-12549 -117 -131 12550 0
-12550 118 -132 0
-12550 118 132 12551 0
-12550 -118 -132 12551 0
-12551 119 -133 0
-12551 119 133 12552 0
-12551 -119 -133 12552 0
-12552 120 -134 0
-12552 120 134 12553 0
-12552 -120 -134 12553 0
-12553 121 -135 0
-12553 121 135 12554 0
-12553 -121 -135 12554 0
-12554 122 -136 0
-12554 122 136 12555 0
-12554 -122 -136 12555 0
-12555 123 -137 0
-12555 123 137 12556 0
-12555 -123 -137 12556 0
-12556 124 -138 0
-12556 124 138 12557 0
-12556 -124 -138 12557 0
-12557 125 -139 0
-12557 125 139 12558 0
-12557 -125 -139 12558 0
-12558 126 -140 0
127 -141 0
127 141 12559 0
-127 -141 12559 0
-12559 128 -142 0
-12559 128 142 12560 0
-12559 -128 -142 12560 0
-12560 129 -143 0
-12560 129 143 12561 0
-12560 -129 -143 12561 0
-12561 130 -144 0
-12561 130 144 12562 0
-12561 -130 -144 12562 0
-12562 131 -145 0
-12562 131 145 12563 0
-12562 -131 -145 12563 0
-12563 132 -146 0
-12563 132 146 12564 0
-12563 -132 -146 12564 0
-12564 133 -147 0
-12564 133 147 12565 0
-12564 -133 -147 12565 0
-12565 134 -148 0
-12565 134 148 12566 0
-12565 -134 -148 12566 0
-12566 135 -149 0
-12566 135 149 12567 0
-12566 -135 -149 12567 0
-12567 136 -150 0
-12567 136 150 12568 0
-12567 -136 -150 12568 0
-12568 137 -151 0
-12568 137 151 12569 0
-12568 -137 -151 12569 0
-12569 138 -152 0
-12569 138 152 12570 0
-12569 -138 -152 12570 0
-12570 139 -153 0
-12570 139 153 12571 0
-12570 -139 -153 12571 0
-12571 140 -154 0
141 -155 0
141 155 12572 0
-141 -155 12572 0
-12572 142 -156 0
-12572 142 156 12573 0
-12572 -142 -156 12573 0
-12573 143 -157 0
-12573 143 157 12574 0
-12573 -143 -157 12574 0
-12574 144 -158 0
-12574 144 158 12575 0
-12574 -144 -158 12575 0
-12575 145 -159 0
-12575 145 159 12576 0
-12575 -145 -159 12576 0
-12576 146 -160 0
-12576 146 160 12577 0
-12576 -146 -160 12577 0
-12577 147 -161 0
-12577 147 161 12578 0
-12577 -147 -161 12578 0
-12578 148 -162 0
-12578 148 162 12579 0
-12578 -148 -162 12579 0
-12579 149 -163 0
-12579 149 163 12580 0
-12579 -149 -163 12580 0
-12580 150 -164 0
-12580 150 164 12581 0
-12580 -150 -164 12581 0
-12581 151 -165 0
-12581 151 165 12582 0
-12581 -151 -165 12582 0
-12582 152 -166 0
-12582 152 166 12583 0
-12582 -152 -166 12583 0
-12583 153 -167 0
-12583 153 167 12584 0
-12583 -153 -167 12584 0
-12584 154 -168 0
155 -169 0
155 169 12585 0
-155 -169 12585 0
-12585 156 -170 0
-12585 156 170 12586 0
-12585 -156 -170 12586 0
-12586 157 -171 0
-12586 157 171 12587 0
-12586 -157 -171 12587 0
-12587 158 -172 0
-12587 158 172 12588 0
-12587 -158 -172 12588 0
-12588 159 -173 0
-12588 159 173 12589 0
-12588 -159 -173 12589 0
-12589 160 -174 0
-12589 160 174 12590 0
-12589 -160 -174 12590 0
-12590 161 -175 0
-12590 161 175 12591 0
-12590 -161 -175 12591 0
-12591 162 -176 0
-12591 162 176 12592 0
-12591 -162 -176 12592 0
-12592 163 -177 0
-12592 163 177 12593 0
-12592 -163 -177 12593 0
-12593 164 -178 0
-12593 164 178 12594 0
-12593 -164 -178 12594 0
-12594 165 -179 0
-12594 165 179 12595 0
-12594 -165 -179 12595 0
-12595 166 -180 0
-12595 166 180 12596 0
-12595 -166 -180 12596 0
-12596 167 -181 0
-12596 167 181 12597 0
-12596 -167 -181 12597 0
-12597 168 -182 0
169 -183 0
169 183 12598 0
-169 -183 12598 0
-12598 170 -184 0
-12598 170 184 12599 0
-12598 -170 -184 12599 0
-12599 171 -185 0
-12599 171 185 12600 0
-12599 -171 -185 12600 0
-12600 172 -186 0
-12600 172 186 12601 0
-12600 -172 -186 12601 0
-12601 173 -187 0
-12601 173 187 12602 0
-12601 -173 -187 12602 0
-12602 174 -188 0
-12602 174 188 12603 0
-12602 -174 -188 12603 0
-12603 175 -189 0
-12603 175 189 12604 0
-12603 -175 -189 12604 0
-12604 176 -190 0
-12604 176 190 12605 0
-12604 -176 -190 12605 0
-12605 177 -191 0
-12605 177 191 12606 0
-12605 -177 -191 12606 0
-12606 178 -192 0
-12606 178 192 12607 0
-12606 -178 -192 12607 0
-12607 179 -193 0
-12607 179 193 12608 0
-12607 -179 -193 12608 0
-12608 180 -194 0
-12608 180 194 12609 0
-12608 -180 -194 12609 0
-12609 181 -195 0
-12609 181 195 12610 0
-12609 -181 -195 12610 0
-12610 182 -196 0
29 -30 0
29 30 12611 0
-29 -30 12611 0
-12611 43 -44 0
-12611 43 44 12612 0
-12611 -43 -44 12612 0
-12612 57 -58 0
-12612 57 58 12613 0
-12612 -57 -58 12613 0
-12613 71 -72 0
-12613 71 72 12614 0
-12613 -71 -72 12614 0
-12614 85 -86 0
-12614 85 86 12615 0
-12614 -85 -86 12615 0
-12615 99 -100 0
-12615 99 100 12616 0
-12615 -99 -100 12616 0
-12616 113 -114 0
-12616 113 114 12617 0
-12616 -113 -114 12617 0
-12617 127 -128 0
-12617 127 128 12618 0
-12617 -127 -128 12618 0
-12618 141 -142 0
-12618 141 142 12619 0
-12618 -141 -142 12619 0
-12619 155 -156 0
-12619 155 156 12620 0
-12619 -155 -156 12620 0
-12620 169 -170 0
-12620 169 170 12621 0
-12620 -169 -170 12621 0
-12621 183 -184 0
30 -31 0
30 31 12622 0
-30 -31 12622 0
-12622 44 -45 0
-12622 44 45 12623 0
-12622 -44 -45 12623 0
-12623 58 -59 0
-12623 58 59 12624 0
-12623 -58 -59 12624 0
-12624 72 -73 0
-12624 72 73 12625 0
-12624 -72 -73 12625 0
-12625 86 -87 0
-12625 86 87 12626 0
-12625 -86 -87 12626 0
-12626 100 -101 0
-12626 100 101 12627 0
-12626 -100 -101 12627 0
-12627 114 -115 0
-12627 114 115 12628 0
-12627 -114 -115 12628 0
-12628 128 -129 0
-12628 128 129 12629 0
-12628 -128 -129 12629 0
-12629 142 -143 0
-12629 142 143 12630 0
-12629 -142 -143 12630 0
-12630 156 -157 0
-12630 156 157 12631 0
-12630 -156 -157 12631 0
-12631 170 -171 0
-12631 170 171 12632 0
-12631 -170 -171 12632 0
-12632 184 -185 0
32 -33 0
32 33 12633 0
-32 -33 12633 0
-12633 46 -47 0
-12633 46 47 12634 0
-12633 -46 -47 12634 0
-12634 60 -61 0
-12634 60 61 12635 0
-12634 -60 -61 12635 0
-12635 74 -75 0
-12635 74 75 12636 0
-12635 -74 -75 12636 0
-12636 88 -89 0
-12636 88 89 12637 0
-12636 -88 -89 12637 0
-12637 102 -103 0
-12637 102 103 12638 0
-12637 -102 -103 12638 0
-12638 116 -117 0
-12638 116 117 12639 0
-12638 -116 -117 12639 0
-12639 130 -131 0
-12639 130 131 12640 0
-12639 -130 -131 12640 0
-12640 144 -145 0
-12640 144 145 12641 0
-12640 -144 -145 12641 0
-12641 158 -159 0
-12641 158 159 12642 0
-12641 -158 -159 12642 0
-12642 172 -173 0
-12642 172 173 12643 0
-12642 -172 -173 12643 0
-12643 186 -187 0
33 -34 0
33 34 12644 0
-33 -34 12644 0
-12644 47 -48 0
-12644 47 48 12645 0
-12644 -47 -48 12645 0
-12645 61 -62 0
-12645 61 62 12646 0
-12645 -61 -62 12646 0
-12646 75 -76 0
-12646 75 76 12647 0
-12646 -75 -76 12647 0
-12647 89 -90 0
-12647 89 90 12648 0
-12647 -89 -90 12648 0
-12648 103 -104 0
-12648 103 104 12649 0
-12648 -103 -104 12649 0
-12649 117 -118 0
-12649 117 118 12650 0
-12649 -117 -118 12650 0
-12650 131 -132 0
-12650 131 132 12651 0
-12650 -131 -132 12651 0
-12651 145 -146 0
-12651 145 146 12652 0
-12651 -145 -146 12652 0
-12652 159 -160 0
-12652 159 160 12653 0
-12652 -159 -160 12653 0
-12653 173 -174 0
-12653 173 174 12654 0
-12653 -173 -174 12654 0
-12654 187 -188 0
34 -35 0
34 35 12655 0
-34 -35 12655 0
-12655 48 -49 0
-12655 48 49 12656 0
-12655 -48 -49 12656 0
-12656 62 -63 0
-12656 62 63 12657 0
-12656 -62 -63 12657 0
-12657 76 -77 0
-12657 76 77 12658 0
-12657 -76 -77 12658 0
-12658 90 -91 0
-12658 90 91 12659 0
-12658 -90 -91 12659 0
-12659 104 -105 0
-12659 104 105 12660 0
-12659 -104 -105 12660 0
-12660 118 -119 0
-12660 118 119 12661 0
-12660 -118 -119 12661 0
-12661 132 -133 0
-12661 132 133 12662 0
-12661 -132 -133 12662 0
-12662 146 -147 0
-12662 146 147 12663 0
-12662 -146 -147 12663 0
-12663 160 -161 0
-12663 160 161 12664 0
-12663 -160 -161 12664 0
-12664 174 -175 0
-12664 174 175 12665 0
-12664 -174 -175 12665 0
-12665 188 -189 0
36 -37 0
36 37 12666 0
-36 -37 12666 0
-12666 50 -51 0
-12666 50 51 12667 0
-12666 -50 -51 12667 0
-12667 64 -65 0
-12667 64 65 12668 0
-12667 -64 -65 12668 0
-12668 78 -79 0
-12668 78 79 12669 0
-12668 -78 -79 12669 0
-12669 92 -93 0
-12669 92 93 12670 0
-12669 -92 -93 12670 0
-12670 106 -107 0
-12670 106 107 12671 0
-12670 -106 -107 12671 0
-12671 120 -121 0
-12671 120 121 12672 0
-12671 -120 -121 12672 0
-12672 134 -135 0
-12672 134 135 12673 0
-12672 -134 -135 12673 0
-12673 148 -149 0
-12673 148 149 12674 0
-12673 -148 -149 12674 0
-12674 162 -163 0
-12674 162 163 12675 0
-12674 -162 -163 12675 0
-12675 176 -177 0
-12675 176 177 12676 0
-12675 -176 -177 12676 0
-12676 190 -191 0
37 -38 0
37 38 12677 0
-37 -38 12677 0
-12677 51 -52 0
-12677 51 52 12678 0
-12677 -51 -52 12678 0
-12678 65 -66 0
-12678 65 66 12679 0
-12678 -65 -66 12679 0
-12679 79 -80 0
-12679 79 80 12680 0
-12679 -79 -80 12680 0
-12680 93 -94 0
-12680 93 94 12681 0
-12680 -93 -94 12681 0
-12681 107 -108 0
-12681 107 108 12682 0
-12681 -107 -108 12682 0
-12682 121 -122 0
-12682 121 122 12683 0
-12682 -121 -122 12683 0
-12683 135 -136 0
-12683 135 136 12684 0
-12683 -135 -136 12684 0
-12684 149 -150 0
-12684 149 150 12685 0
-12684 -149 -150 12685 0
-12685 163 -164 0
-12685 163 164 12686 0
-12685 -163 -164 12686 0
-12686 177 -178 0
-12686 177 178 12687 0
-12686 -177 -178 12687 0
-12687 191 -192 0
38 -39 0
38 39 12688 0
-38 -39 12688 0
-12688 52 -53 0
-12688 52 53 12689 0
-12688 -52 -53 12689 0
-12689 66 -67 0
-12689 66 67 12690 0
-12689 -66 -67 12690 0
-12690 80 -81 0
-12690 80 81 12691 0
-12690 -80 -81 12691 0
-12691 94 -95 0
-12691 94 95 12692 0
-12691 -94 -95 12692 0
-12692 108 -109 0
-12692 108 109 12693 0
-12692 -108 -109 12693 0
-12693 122 -123 0
-12693 122 123 12694 0
-12693 -122 -123 12694 0
-12694 136 -137 0
-12694 136 137 12695 0
-12694 -136 -137 12695 0
-12695 150 -151 0
-12695 150 151 12696 0
-12695 -150 -151 12696 0
-12696 164 -165 0
-12696 164 165 12697 0
-12696 -164 -165 12697 0
-12697 178 -179 0
-12697 178 179 12698 0
-12697 -178 -179 12698 0
-12698 192 -193 0
40 -41 0
40 41 12699 0
-40 -41 12699 0
-12699 54 -55 0
-12699 54 55 12700 0
-12699 -54 -55 12700 0
-12700 68 -69 0
-12700 68 69 12701 0
-12700 -68 -69 12701 0
-12701 82 -83 0
-12701 82 83 12702 0
-12701 -82 -83 12702 0
-12702 96 -97 0
-12702 96 97 12703 0
-12702 -96 -97 12703 0
-12703 110 -111 0
-12703 110 111 12704 0
-12703 -110 -111 12704 0
-12704 124 -125 0
-12704 124 125 12705 0
-12704 -124 -125 12705 0
-12705 138 -139 0
-12705 138 139 12706 0
-12705 -138 -139 12706 0
-12706 152 -153 0
-12706 152 153 12707 0
-12706 -152 -153 12707 0
-12707 166 -167 0
-12707 166 167 12708 0
-12707 -166 -167 12708 0
-12708 180 -181 0
-12708 180 181 12709 0
-12708 -180 -181 12709 0
-12709 194 -195 0
41 -42 0
41 42 12710 0
-41 -42 12710 0
-12710 55 -56 0
-12710 55 56 12711 0
-12710 -55 -56 12711 0
-12711 69 -70 0
-12711 69 70 12712 0
-12711 -69 -70 12712 0
-12712 83 -84 0
-12712 83 84 12713 0
-12712 -83 -84 12713 0
-12713 97 -98 0
-12713 97 98 12714 0
-12713 -97 -98 12714 0
-12714 111 -112 0
-12714 111 112 12715 0
-12714 -111 -112 12715 0
-12715 125 -126 0
-12715 125 126 12716 0
-12715 -125 -126 12716 0
-12716 139 -140 0
-12716 139 140 12717 0
-12716 -139 -140 12717 0
-12717 153 -154 0
-12717 153 154 12718 0
-12717 -153 -154 12718 0
-12718 167 -168 0
-12718 167 168 12719 0
-12718 -167 -168 12719 0
-12719 181 -182 0
-12719 181 182 12720 0
-12719 -181 -182 12720 0
-12720 195 -196 0
