c C(2m,m,3)<= 14, m=5 dual direct encoding
c gen_direct.py 5 proofs/direct_m5.cnf --pair
p cnf 5836 17682
-1 141 0
-141 1 0
-141 142 0
-2 142 0
-142 141 2 0
-141 -2 143 0
-143 141 0
-143 2 0
-142 144 0
-3 144 0
-144 142 3 0
-143 145 0
-142 -3 145 0
-145 143 142 0
-145 143 3 0
-143 -3 146 0
-146 143 0
-146 3 0
-144 147 0
-4 147 0
-147 144 4 0
-145 148 0
-144 -4 148 0
-148 145 144 0
-148 145 4 0
-146 149 0
-145 -4 149 0
-149 146 145 0
-149 146 4 0
-146 -4 150 0
-150 146 0
-150 4 0
-147 151 0
-5 151 0
-151 147 5 0
-148 152 0
-147 -5 152 0
-152 148 147 0
-152 148 5 0
-149 153 0
-148 -5 153 0
-153 149 148 0
-153 149 5 0
-150 154 0
-149 -5 154 0
-154 150 149 0
-154 150 5 0
-150 -5 155 0
-155 150 0
-155 5 0
-151 156 0
-6 156 0
-156 151 6 0
-152 157 0
-151 -6 157 0
-157 152 151 0
-157 152 6 0
-153 158 0
-152 -6 158 0
-158 153 152 0
-158 153 6 0
-154 159 0
-153 -6 159 0
-159 154 153 0
-159 154 6 0
-155 160 0
-154 -6 160 0
-160 155 154 0
-160 155 6 0
-155 -6 161 0
-161 155 0
-161 6 0
-156 162 0
-7 162 0
-162 156 7 0
-157 163 0
-156 -7 163 0
-163 157 156 0
-163 157 7 0
-158 164 0
-157 -7 164 0
-164 158 157 0
-164 158 7 0
-159 165 0
-158 -7 165 0
-165 159 158 0
-165 159 7 0
-160 166 0
-159 -7 166 0
-166 160 159 0
-166 160 7 0
-161 167 0
-160 -7 167 0
-167 161 160 0
-167 161 7 0
-161 -7 168 0
-168 161 0
-168 7 0
-162 169 0
-8 169 0
-169 162 8 0
-163 170 0
-162 -8 170 0
-170 163 162 0
-170 163 8 0
-164 171 0
-163 -8 171 0
-171 164 163 0
-171 164 8 0
-165 172 0
-164 -8 172 0
-172 165 164 0
-172 165 8 0
-166 173 0
-165 -8 173 0
-173 166 165 0
-173 166 8 0
-167 174 0
-166 -8 174 0
-174 167 166 0
-174 167 8 0
-168 175 0
-167 -8 175 0
-175 168 167 0
-175 168 8 0
-168 -8 176 0
-176 168 0
-176 8 0
-169 177 0
-9 177 0
-177 169 9 0
-170 178 0
-169 -9 178 0
-178 170 169 0
-178 170 9 0
-171 179 0
-170 -9 179 0
-179 171 170 0
-179 171 9 0
-172 180 0
-171 -9 180 0
-180 172 171 0
-180 172 9 0
-173 181 0
-172 -9 181 0
-181 173 172 0
-181 173 9 0
-174 182 0
-173 -9 182 0
-182 174 173 0
-182 174 9 0
-175 183 0
-174 -9 183 0
-183 175 174 0
-183 175 9 0
-176 184 0
-175 -9 184 0
-184 176 175 0
-184 176 9 0
-177 185 0
-10 185 0
-185 177 10 0
-178 186 0
-177 -10 186 0
-186 178 177 0
-186 178 10 0
-179 187 0
-178 -10 187 0
-187 179 178 0
-187 179 10 0
-180 188 0
-179 -10 188 0
-188 180 179 0
-188 180 10 0
-181 189 0
-180 -10 189 0
-189 181 180 0
-189 181 10 0
-182 190 0
-181 -10 190 0
-190 182 181 0
-190 182 10 0
-183 191 0
-182 -10 191 0
-191 183 182 0
-191 183 10 0
-184 192 0
-183 -10 192 0
-192 184 183 0
-192 184 10 0
-185 193 0
-11 193 0
-193 185 11 0
-186 194 0
-185 -11 194 0
-194 186 185 0
-194 186 11 0
-187 195 0
-186 -11 195 0
-195 187 186 0
-195 187 11 0
-188 196 0
-187 -11 196 0
-196 188 187 0
-196 188 11 0
-189 197 0
-188 -11 197 0
-197 189 188 0
-197 189 11 0
-190 198 0
-189 -11 198 0
-198 190 189 0
-198 190 11 0
-191 199 0
-190 -11 199 0
-199 191 190 0
-199 191 11 0
-192 200 0
-191 -11 200 0
-200 192 191 0
-200 192 11 0
-193 201 0
-12 201 0
-201 193 12 0
-194 202 0
-193 -12 202 0
-202 194 193 0
-202 194 12 0
-195 203 0
-194 -12 203 0
-203 195 194 0
-203 195 12 0
-196 204 0
-195 -12 204 0
-204 196 195 0
-204 196 12 0
-197 205 0
-196 -12 205 0
-205 197 196 0
-205 197 12 0
-198 206 0
-197 -12 206 0
-206 198 197 0
-206 198 12 0
-199 207 0
-198 -12 207 0
-207 199 198 0
-207 199 12 0
-200 208 0
-199 -12 208 0
-208 200 199 0
-208 200 12 0
-201 209 0
-13 209 0
-209 201 13 0
-202 210 0
-201 -13 210 0
-210 202 201 0
-210 202 13 0
-203 211 0
-202 -13 211 0
-211 203 202 0
-211 203 13 0
-204 212 0
-203 -13 212 0
-212 204 203 0
-212 204 13 0
-205 213 0
-204 -13 213 0
-213 205 204 0
-213 205 13 0
-206 214 0
-205 -13 214 0
-214 206 205 0
-214 206 13 0
-207 215 0
-206 -13 215 0
-215 207 206 0
-215 207 13 0
-208 216 0
-207 -13 216 0
-216 208 207 0
-216 208 13 0
-209 217 0
-14 217 0
-217 209 14 0
-210 218 0
-209 -14 218 0
-218 210 209 0
-218 210 14 0
-211 219 0
-210 -14 219 0
-219 211 210 0
-219 211 14 0
-212 220 0
-211 -14 220 0
-220 212 211 0
-220 212 14 0
-213 221 0
-212 -14 221 0
-221 213 212 0
-221 213 14 0
-214 222 0
-213 -14 222 0
-222 214 213 0
-222 214 14 0
-215 223 0
-214 -14 223 0
-223 215 214 0
-223 215 14 0
-216 224 0
-215 -14 224 0
-224 216 215 0
-224 216 14 0
223 0
-224 0
-15 225 0
-225 15 0
-225 226 0
-16 226 0
-226 225 16 0
-225 -16 227 0
-227 225 0
-227 16 0
-226 228 0
-17 228 0
-228 226 17 0
-227 229 0
-226 -17 229 0
-229 227 226 0
-229 227 17 0
-227 -17 230 0
-230 227 0
-230 17 0
-228 231 0
-18 231 0
-231 228 18 0
-229 232 0
-228 -18 232 0
-232 229 228 0
-232 229 18 0
-230 233 0
-229 -18 233 0
-233 230 229 0
-233 230 18 0
-230 -18 234 0
-234 230 0
-234 18 0
-231 235 0
-19 235 0
-235 231 19 0
-232 236 0
-231 -19 236 0
-236 232 231 0
-236 232 19 0
-233 237 0
-232 -19 237 0
-237 233 232 0
-237 233 19 0
-234 238 0
-233 -19 238 0
-238 234 233 0
-238 234 19 0
-234 -19 239 0
-239 234 0
-239 19 0
-235 240 0
-20 240 0
-240 235 20 0
-236 241 0
-235 -20 241 0
-241 236 235 0
-241 236 20 0
-237 242 0
-236 -20 242 0
-242 237 236 0
-242 237 20 0
-238 243 0
-237 -20 243 0
-243 238 237 0
-243 238 20 0
-239 244 0
-238 -20 244 0
-244 239 238 0
-244 239 20 0
-239 -20 245 0
-245 239 0
-245 20 0
-240 246 0
-21 246 0
-246 240 21 0
-241 247 0
-240 -21 247 0
-247 241 240 0
-247 241 21 0
-242 248 0
-241 -21 248 0
-248 242 241 0
-248 242 21 0
-243 249 0
-242 -21 249 0
-249 243 242 0
-249 243 21 0
-244 250 0
-243 -21 250 0
-250 244 243 0
-250 244 21 0
-245 251 0
-244 -21 251 0
-251 245 244 0
-251 245 21 0
-245 -21 252 0
-252 245 0
-252 21 0
-246 253 0
-22 253 0
-253 246 22 0
-247 254 0
-246 -22 254 0
-254 247 246 0
-254 247 22 0
-248 255 0
-247 -22 255 0
-255 248 247 0
-255 248 22 0
-249 256 0
-248 -22 256 0
-256 249 248 0
-256 249 22 0
-250 257 0
-249 -22 257 0
-257 250 249 0
-257 250 22 0
-251 258 0
-250 -22 258 0
-258 251 250 0
-258 251 22 0
-252 259 0
-251 -22 259 0
-259 252 251 0
-259 252 22 0
-252 -22 260 0
-260 252 0
-260 22 0
-253 261 0
-23 261 0
-261 253 23 0
-254 262 0
-253 -23 262 0
-262 254 253 0
-262 254 23 0
-255 263 0
-254 -23 263 0
-263 255 254 0
-263 255 23 0
-256 264 0
-255 -23 264 0
-264 256 255 0
-264 256 23 0
-257 265 0
-256 -23 265 0
-265 257 256 0
-265 257 23 0
-258 266 0
-257 -23 266 0
-266 258 257 0
-266 258 23 0
-259 267 0
-258 -23 267 0
-267 259 258 0
-267 259 23 0
-260 268 0
-259 -23 268 0
-268 260 259 0
-268 260 23 0
-261 269 0
-24 269 0
-269 261 24 0
-262 270 0
-261 -24 270 0
-270 262 261 0
-270 262 24 0
-263 271 0
-262 -24 271 0
-271 263 262 0
-271 263 24 0
-264 272 0
-263 -24 272 0
-272 264 263 0
-272 264 24 0
-265 273 0
-264 -24 273 0
-273 265 264 0
-273 265 24 0
-266 274 0
-265 -24 274 0
-274 266 265 0
-274 266 24 0
-267 275 0
-266 -24 275 0
-275 267 266 0
-275 267 24 0
-268 276 0
-267 -24 276 0
-276 268 267 0
-276 268 24 0
-269 277 0
-25 277 0
-277 269 25 0
-270 278 0
-269 -25 278 0
-278 270 269 0
-278 270 25 0
-271 279 0
-270 -25 279 0
-279 271 270 0
-279 271 25 0
-272 280 0
-271 -25 280 0
-280 272 271 0
-280 272 25 0
-273 281 0
-272 -25 281 0
-281 273 272 0
-281 273 25 0
-274 282 0
-273 -25 282 0
-282 274 273 0
-282 274 25 0
-275 283 0
-274 -25 283 0
-283 275 274 0
-283 275 25 0
-276 284 0
-275 -25 284 0
-284 276 275 0
-284 276 25 0
-277 285 0
-26 285 0
-285 277 26 0
-278 286 0
-277 -26 286 0
-286 278 277 0
-286 278 26 0
-279 287 0
-278 -26 287 0
-287 279 278 0
-287 279 26 0
-280 288 0
-279 -26 288 0
-288 280 279 0
-288 280 26 0
-281 289 0
-280 -26 289 0
-289 281 280 0
-289 281 26 0
-282 290 0
-281 -26 290 0
-290 282 281 0
-290 282 26 0
-283 291 0
-282 -26 291 0
-291 283 282 0
-291 283 26 0
-284 292 0
-283 -26 292 0
-292 284 283 0
-292 284 26 0
-285 293 0
-27 293 0
-293 285 27 0
-286 294 0
-285 -27 294 0
-294 286 285 0
-294 286 27 0
-287 295 0
-286 -27 295 0
-295 287 286 0
-295 287 27 0
-288 296 0
-287 -27 296 0
-296 288 287 0
-296 288 27 0
-289 297 0
-288 -27 297 0
-297 289 288 0
-297 289 27 0
-290 298 0
-289 -27 298 0
-298 290 289 0
-298 290 27 0
-291 299 0
-290 -27 299 0
-299 291 290 0
-299 291 27 0
-292 300 0
-291 -27 300 0
-300 292 291 0
-300 292 27 0
-293 301 0
-28 301 0
-301 293 28 0
-294 302 0
-293 -28 302 0
-302 294 293 0
-302 294 28 0
-295 303 0
-294 -28 303 0
-303 295 294 0
-303 295 28 0
-296 304 0
-295 -28 304 0
-304 296 295 0
-304 296 28 0
-297 305 0
-296 -28 305 0
-305 297 296 0
-305 297 28 0
-298 306 0
-297 -28 306 0
-306 298 297 0
-306 298 28 0
-299 307 0
-298 -28 307 0
-307 299 298 0
-307 299 28 0
-300 308 0
-299 -28 308 0
-308 300 299 0
-308 300 28 0
307 0
-308 0
-29 309 0
-309 29 0
-309 310 0
-30 310 0
-310 309 30 0
-309 -30 311 0
-311 309 0
-311 30 0
-310 312 0
-31 312 0
-312 310 31 0
-311 313 0
-310 -31 313 0
-313 311 310 0
-313 311 31 0
-311 -31 314 0
-314 311 0
-314 31 0
-312 315 0
-32 315 0
-315 312 32 0
-313 316 0
-312 -32 316 0
-316 313 312 0
-316 313 32 0
-314 317 0
-313 -32 317 0
-317 314 313 0
-317 314 32 0
-314 -32 318 0
-318 314 0
-318 32 0
-315 319 0
-33 319 0
-319 315 33 0
-316 320 0
-315 -33 320 0
-320 316 315 0
-320 316 33 0
-317 321 0
-316 -33 321 0
-321 317 316 0
-321 317 33 0
-318 322 0
-317 -33 322 0
-322 318 317 0
-322 318 33 0
-318 -33 323 0
-323 318 0
-323 33 0
-319 324 0
-34 324 0
-324 319 34 0
-320 325 0
-319 -34 325 0
-325 320 319 0
-325 320 34 0
-321 326 0
-320 -34 326 0
-326 321 320 0
-326 321 34 0
-322 327 0
-321 -34 327 0
-327 322 321 0
-327 322 34 0
-323 328 0
-322 -34 328 0
-328 323 322 0
-328 323 34 0
-323 -34 329 0
-329 323 0
-329 34 0
-324 330 0
-35 330 0
-330 324 35 0
-325 331 0
-324 -35 331 0
-331 325 324 0
-331 325 35 0
-326 332 0
-325 -35 332 0
-332 326 325 0
-332 326 35 0
-327 333 0
-326 -35 333 0
-333 327 326 0
-333 327 35 0
-328 334 0
-327 -35 334 0
-334 328 327 0
-334 328 35 0
-329 335 0
-328 -35 335 0
-335 329 328 0
-335 329 35 0
-329 -35 336 0
-336 329 0
-336 35 0
-330 337 0
-36 337 0
-337 330 36 0
-331 338 0
-330 -36 338 0
-338 331 330 0
-338 331 36 0
-332 339 0
-331 -36 339 0
-339 332 331 0
-339 332 36 0
-333 340 0
-332 -36 340 0
-340 333 332 0
-340 333 36 0
-334 341 0
-333 -36 341 0
-341 334 333 0
-341 334 36 0
-335 342 0
-334 -36 342 0
-342 335 334 0
-342 335 36 0
-336 343 0
-335 -36 343 0
-343 336 335 0
-343 336 36 0
-336 -36 344 0
-344 336 0
-344 36 0
-337 345 0
-37 345 0
-345 337 37 0
-338 346 0
-337 -37 346 0
-346 338 337 0
-346 338 37 0
-339 347 0
-338 -37 347 0
-347 339 338 0
-347 339 37 0
-340 348 0
-339 -37 348 0
-348 340 339 0
-348 340 37 0
-341 349 0
-340 -37 349 0
-349 341 340 0
-349 341 37 0
-342 350 0
-341 -37 350 0
-350 342 341 0
-350 342 37 0
-343 351 0
-342 -37 351 0
-351 343 342 0
-351 343 37 0
-344 352 0
-343 -37 352 0
-352 344 343 0
-352 344 37 0
-345 353 0
-38 353 0
-353 345 38 0
-346 354 0
-345 -38 354 0
-354 346 345 0
-354 346 38 0
-347 355 0
-346 -38 355 0
-355 347 346 0
-355 347 38 0
-348 356 0
-347 -38 356 0
-356 348 347 0
-356 348 38 0
-349 357 0
-348 -38 357 0
-357 349 348 0
-357 349 38 0
-350 358 0
-349 -38 358 0
-358 350 349 0
-358 350 38 0
-351 359 0
-350 -38 359 0
-359 351 350 0
-359 351 38 0
-352 360 0
-351 -38 360 0
-360 352 351 0
-360 352 38 0
-353 361 0
-39 361 0
-361 353 39 0
-354 362 0
-353 -39 362 0
-362 354 353 0
-362 354 39 0
-355 363 0
-354 -39 363 0
-363 355 354 0
-363 355 39 0
-356 364 0
-355 -39 364 0
-364 356 355 0
-364 356 39 0
-357 365 0
-356 -39 365 0
-365 357 356 0
-365 357 39 0
-358 366 0
-357 -39 366 0
-366 358 357 0
-366 358 39 0
-359 367 0
-358 -39 367 0
-367 359 358 0
-367 359 39 0
-360 368 0
-359 -39 368 0
-368 360 359 0
-368 360 39 0
-361 369 0
-40 369 0
-369 361 40 0
-362 370 0
-361 -40 370 0
-370 362 361 0
-370 362 40 0
-363 371 0
-362 -40 371 0
-371 363 362 0
-371 363 40 0
-364 372 0
-363 -40 372 0
-372 364 363 0
-372 364 40 0
-365 373 0
-364 -40 373 0
-373 365 364 0
-373 365 40 0
-366 374 0
-365 -40 374 0
-374 366 365 0
-374 366 40 0
-367 375 0
-366 -40 375 0
-375 367 366 0
-375 367 40 0
-368 376 0
-367 -40 376 0
-376 368 367 0
-376 368 40 0
-369 377 0
-41 377 0
-377 369 41 0
-370 378 0
-369 -41 378 0
-378 370 369 0
-378 370 41 0
-371 379 0
-370 -41 379 0
-379 371 370 0
-379 371 41 0
-372 380 0
-371 -41 380 0
-380 372 371 0
-380 372 41 0
-373 381 0
-372 -41 381 0
-381 373 372 0
-381 373 41 0
-374 382 0
-373 -41 382 0
-382 374 373 0
-382 374 41 0
-375 383 0
-374 -41 383 0
-383 375 374 0
-383 375 41 0
-376 384 0
-375 -41 384 0
-384 376 375 0
-384 376 41 0
-377 385 0
-42 385 0
-385 377 42 0
-378 386 0
-377 -42 386 0
-386 378 377 0
-386 378 42 0
-379 387 0
-378 -42 387 0
-387 379 378 0
-387 379 42 0
-380 388 0
-379 -42 388 0
-388 380 379 0
-388 380 42 0
-381 389 0
-380 -42 389 0
-389 381 380 0
-389 381 42 0
-382 390 0
-381 -42 390 0
-390 382 381 0
-390 382 42 0
-383 391 0
-382 -42 391 0
-391 383 382 0
-391 383 42 0
-384 392 0
-383 -42 392 0
-392 384 383 0
-392 384 42 0
391 0
-392 0
-43 393 0
-393 43 0
-393 394 0
-44 394 0
-394 393 44 0
-393 -44 395 0
-395 393 0
-395 44 0
-394 396 0
-45 396 0
-396 394 45 0
-395 397 0
-394 -45 397 0
-397 395 394 0
-397 395 45 0
-395 -45 398 0
-398 395 0
-398 45 0
-396 399 0
-46 399 0
-399 396 46 0
-397 400 0
-396 -46 400 0
-400 397 396 0
-400 397 46 0
-398 401 0
-397 -46 401 0
-401 398 397 0
-401 398 46 0
-398 -46 402 0
-402 398 0
-402 46 0
-399 403 0
-47 403 0
-403 399 47 0
-400 404 0
-399 -47 404 0
-404 400 399 0
-404 400 47 0
-401 405 0
-400 -47 405 0
-405 401 400 0
-405 401 47 0
-402 406 0
-401 -47 406 0
-406 402 401 0
-406 402 47 0
-402 -47 407 0
-407 402 0
-407 47 0
-403 408 0
-48 408 0
-408 403 48 0
-404 409 0
-403 -48 409 0
-409 404 403 0
-409 404 48 0
-405 410 0
-404 -48 410 0
-410 405 404 0
-410 405 48 0
-406 411 0
-405 -48 411 0
-411 406 405 0
-411 406 48 0
-407 412 0
-406 -48 412 0
-412 407 406 0
-412 407 48 0
-407 -48 413 0
-413 407 0
-413 48 0
-408 414 0
-49 414 0
-414 408 49 0
-409 415 0
-408 -49 415 0
-415 409 408 0
-415 409 49 0
-410 416 0
-409 -49 416 0
-416 410 409 0
-416 410 49 0
-411 417 0
-410 -49 417 0
-417 411 410 0
-417 411 49 0
-412 418 0
-411 -49 418 0
-418 412 411 0
-418 412 49 0
-413 419 0
-412 -49 419 0
-419 413 412 0
-419 413 49 0
-413 -49 420 0
-420 413 0
-420 49 0
-414 421 0
-50 421 0
-421 414 50 0
-415 422 0
-414 -50 422 0
-422 415 414 0
-422 415 50 0
-416 423 0
-415 -50 423 0
-423 416 415 0
-423 416 50 0
-417 424 0
-416 -50 424 0
-424 417 416 0
-424 417 50 0
-418 425 0
-417 -50 425 0
-425 418 417 0
-425 418 50 0
-419 426 0
-418 -50 426 0
-426 419 418 0
-426 419 50 0
-420 427 0
-419 -50 427 0
-427 420 419 0
-427 420 50 0
-420 -50 428 0
-428 420 0
-428 50 0
-421 429 0
-51 429 0
-429 421 51 0
-422 430 0
-421 -51 430 0
-430 422 421 0
-430 422 51 0
-423 431 0
-422 -51 431 0
-431 423 422 0
-431 423 51 0
-424 432 0
-423 -51 432 0
-432 424 423 0
-432 424 51 0
-425 433 0
-424 -51 433 0
-433 425 424 0
-433 425 51 0
-426 434 0
-425 -51 434 0
-434 426 425 0
-434 426 51 0
-427 435 0
-426 -51 435 0
-435 427 426 0
-435 427 51 0
-428 436 0
-427 -51 436 0
-436 428 427 0
-436 428 51 0
-429 437 0
-52 437 0
-437 429 52 0
-430 438 0
-429 -52 438 0
-438 430 429 0
-438 430 52 0
-431 439 0
-430 -52 439 0
-439 431 430 0
-439 431 52 0
-432 440 0
-431 -52 440 0
-440 432 431 0
-440 432 52 0
-433 441 0
-432 -52 441 0
-441 433 432 0
-441 433 52 0
-434 442 0
-433 -52 442 0
-442 434 433 0
-442 434 52 0
-435 443 0
-434 -52 443 0
-443 435 434 0
-443 435 52 0
-436 444 0
-435 -52 444 0
-444 436 435 0
-444 436 52 0
-437 445 0
-53 445 0
-445 437 53 0
-438 446 0
-437 -53 446 0
-446 438 437 0
-446 438 53 0
-439 447 0
-438 -53 447 0
-447 439 438 0
-447 439 53 0
-440 448 0
-439 -53 448 0
-448 440 439 0
-448 440 53 0
-441 449 0
-440 -53 449 0
-449 441 440 0
-449 441 53 0
-442 450 0
-441 -53 450 0
-450 442 441 0
-450 442 53 0
-443 451 0
-442 -53 451 0
-451 443 442 0
-451 443 53 0
-444 452 0
-443 -53 452 0
-452 444 443 0
-452 444 53 0
-445 453 0
-54 453 0
-453 445 54 0
-446 454 0
-445 -54 454 0
-454 446 445 0
-454 446 54 0
-447 455 0
-446 -54 455 0
-455 447 446 0
-455 447 54 0
-448 456 0
-447 -54 456 0
-456 448 447 0
-456 448 54 0
-449 457 0
-448 -54 457 0
-457 449 448 0
-457 449 54 0
-450 458 0
-449 -54 458 0
-458 450 449 0
-458 450 54 0
-451 459 0
-450 -54 459 0
-459 451 450 0
-459 451 54 0
-452 460 0
-451 -54 460 0
-460 452 451 0
-460 452 54 0
-453 461 0
-55 461 0
-461 453 55 0
-454 462 0
-453 -55 462 0
-462 454 453 0
-462 454 55 0
-455 463 0
-454 -55 463 0
-463 455 454 0
-463 455 55 0
-456 464 0
-455 -55 464 0
-464 456 455 0
-464 456 55 0
-457 465 0
-456 -55 465 0
-465 457 456 0
-465 457 55 0
-458 466 0
-457 -55 466 0
-466 458 457 0
-466 458 55 0
-459 467 0
-458 -55 467 0
-467 459 458 0
-467 459 55 0
-460 468 0
-459 -55 468 0
-468 460 459 0
-468 460 55 0
-461 469 0
-56 469 0
-469 461 56 0
-462 470 0
-461 -56 470 0
-470 462 461 0
-470 462 56 0
-463 471 0
-462 -56 471 0
-471 463 462 0
-471 463 56 0
-464 472 0
-463 -56 472 0
-472 464 463 0
-472 464 56 0
-465 473 0
-464 -56 473 0
-473 465 464 0
-473 465 56 0
-466 474 0
-465 -56 474 0
-474 466 465 0
-474 466 56 0
-467 475 0
-466 -56 475 0
-475 467 466 0
-475 467 56 0
-468 476 0
-467 -56 476 0
-476 468 467 0
-476 468 56 0
475 0
-476 0
-57 477 0
-477 57 0
-477 478 0
-58 478 0
-478 477 58 0
-477 -58 479 0
-479 477 0
-479 58 0
-478 480 0
-59 480 0
-480 478 59 0
-479 481 0
-478 -59 481 0
-481 479 478 0
-481 479 59 0
-479 -59 482 0
-482 479 0
-482 59 0
-480 483 0
-60 483 0
-483 480 60 0
-481 484 0
-480 -60 484 0
-484 481 480 0
-484 481 60 0
-482 485 0
-481 -60 485 0
-485 482 481 0
-485 482 60 0
-482 -60 486 0
-486 482 0
-486 60 0
-483 487 0
-61 487 0
-487 483 61 0
-484 488 0
-483 -61 488 0
-488 484 483 0
-488 484 61 0
-485 489 0
-484 -61 489 0
-489 485 484 0
-489 485 61 0
-486 490 0
-485 -61 490 0
-490 486 485 0
-490 486 61 0
-486 -61 491 0
-491 486 0
-491 61 0
-487 492 0
-62 492 0
-492 487 62 0
-488 493 0
-487 -62 493 0
-493 488 487 0
-493 488 62 0
-489 494 0
-488 -62 494 0
-494 489 488 0
-494 489 62 0
-490 495 0
-489 -62 495 0
-495 490 489 0
-495 490 62 0
-491 496 0
-490 -62 496 0
-496 491 490 0
-496 491 62 0
-491 -62 497 0
-497 491 0
-497 62 0
-492 498 0
-63 498 0
-498 492 63 0
-493 499 0
-492 -63 499 0
-499 493 492 0
-499 493 63 0
-494 500 0
-493 -63 500 0
-500 494 493 0
-500 494 63 0
-495 501 0
-494 -63 501 0
-501 495 494 0
-501 495 63 0
-496 502 0
-495 -63 502 0
-502 496 495 0
-502 496 63 0
-497 503 0
-496 -63 503 0
-503 497 496 0
-503 497 63 0
-497 -63 504 0
-504 497 0
-504 63 0
-498 505 0
-64 505 0
-505 498 64 0
-499 506 0
-498 -64 506 0
-506 499 498 0
-506 499 64 0
-500 507 0
-499 -64 507 0
-507 500 499 0
-507 500 64 0
-501 508 0
-500 -64 508 0
-508 501 500 0
-508 501 64 0
-502 509 0
-501 -64 509 0
-509 502 501 0
-509 502 64 0
-503 510 0
-502 -64 510 0
-510 503 502 0
-510 503 64 0
-504 511 0
-503 -64 511 0
-511 504 503 0
-511 504 64 0
-504 -64 512 0
-512 504 0
-512 64 0
-505 513 0
-65 513 0
-513 505 65 0
-506 514 0
-505 -65 514 0
-514 506 505 0
-514 506 65 0
-507 515 0
-506 -65 515 0
-515 507 506 0
-515 507 65 0
-508 516 0
-507 -65 516 0
-516 508 507 0
-516 508 65 0
-509 517 0
-508 -65 517 0
-517 509 508 0
-517 509 65 0
-510 518 0
-509 -65 518 0
-518 510 509 0
-518 510 65 0
-511 519 0
-510 -65 519 0
-519 511 510 0
-519 511 65 0
-512 520 0
-511 -65 520 0
-520 512 511 0
-520 512 65 0
-513 521 0
-66 521 0
-521 513 66 0
-514 522 0
-513 -66 522 0
-522 514 513 0
-522 514 66 0
-515 523 0
-514 -66 523 0
-523 515 514 0
-523 515 66 0
-516 524 0
-515 -66 524 0
-524 516 515 0
-524 516 66 0
-517 525 0
-516 -66 525 0
-525 517 516 0
-525 517 66 0
-518 526 0
-517 -66 526 0
-526 518 517 0
-526 518 66 0
-519 527 0
-518 -66 527 0
-527 519 518 0
-527 519 66 0
-520 528 0
-519 -66 528 0
-528 520 519 0
-528 520 66 0
-521 529 0
-67 529 0
-529 521 67 0
-522 530 0
-521 -67 530 0
-530 522 521 0
-530 522 67 0
-523 531 0
-522 -67 531 0
-531 523 522 0
-531 523 67 0
-524 532 0
-523 -67 532 0
-532 524 523 0
-532 524 67 0
-525 533 0
-524 -67 533 0
-533 525 524 0
-533 525 67 0
-526 534 0
-525 -67 534 0
-534 526 525 0
-534 526 67 0
-527 535 0
-526 -67 535 0
-535 527 526 0
-535 527 67 0
-528 536 0
-527 -67 536 0
-536 528 527 0
-536 528 67 0
-529 537 0
-68 537 0
-537 529 68 0
-530 538 0
-529 -68 538 0
-538 530 529 0
-538 530 68 0
-531 539 0
-530 -68 539 0
-539 531 530 0
-539 531 68 0
-532 540 0
-531 -68 540 0
-540 532 531 0
-540 532 68 0
-533 541 0
-532 -68 541 0
-541 533 532 0
-541 533 68 0
-534 542 0
-533 -68 542 0
-542 534 533 0
-542 534 68 0
-535 543 0
-534 -68 543 0
-543 535 534 0
-543 535 68 0
-536 544 0
-535 -68 544 0
-544 536 535 0
-544 536 68 0
-537 545 0
-69 545 0
-545 537 69 0
-538 546 0
-537 -69 546 0
-546 538 537 0
-546 538 69 0
-539 547 0
-538 -69 547 0
-547 539 538 0
-547 539 69 0
-540 548 0
-539 -69 548 0
-548 540 539 0
-548 540 69 0
-541 549 0
-540 -69 549 0
-549 541 540 0
-549 541 69 0
-542 550 0
-541 -69 550 0
-550 542 541 0
-550 542 69 0
-543 551 0
-542 -69 551 0
-551 543 542 0
-551 543 69 0
-544 552 0
-543 -69 552 0
-552 544 543 0
-552 544 69 0
-545 553 0
-70 553 0
-553 545 70 0
-546 554 0
-545 -70 554 0
-554 546 545 0
-554 546 70 0
-547 555 0
-546 -70 555 0
-555 547 546 0
-555 547 70 0
-548 556 0
-547 -70 556 0
-556 548 547 0
-556 548 70 0
-549 557 0
-548 -70 557 0
-557 549 548 0
-557 549 70 0
-550 558 0
-549 -70 558 0
-558 550 549 0
-558 550 70 0
-551 559 0
-550 -70 559 0
-559 551 550 0
-559 551 70 0
-552 560 0
-551 -70 560 0
-560 552 551 0
-560 552 70 0
559 0
-560 0
-71 561 0
-561 71 0
-561 562 0
-72 562 0
-562 561 72 0
-561 -72 563 0
-563 561 0
-563 72 0
-562 564 0
-73 564 0
-564 562 73 0
-563 565 0
-562 -73 565 0
-565 563 562 0
-565 563 73 0
-563 -73 566 0
-566 563 0
-566 73 0
-564 567 0
-74 567 0
-567 564 74 0
-565 568 0
-564 -74 568 0
-568 565 564 0
-568 565 74 0
-566 569 0
-565 -74 569 0
-569 566 565 0
-569 566 74 0
-566 -74 570 0
-570 566 0
-570 74 0
-567 571 0
-75 571 0
-571 567 75 0
-568 572 0
-567 -75 572 0
-572 568 567 0
-572 568 75 0
-569 573 0
-568 -75 573 0
-573 569 568 0
-573 569 75 0
-570 574 0
-569 -75 574 0
-574 570 569 0
-574 570 75 0
-570 -75 575 0
-575 570 0
-575 75 0
-571 576 0
-76 576 0
-576 571 76 0
-572 577 0
-571 -76 577 0
-577 572 571 0
-577 572 76 0
-573 578 0
-572 -76 578 0
-578 573 572 0
-578 573 76 0
-574 579 0
-573 -76 579 0
-579 574 573 0
-579 574 76 0
-575 580 0
-574 -76 580 0
-580 575 574 0
-580 575 76 0
-575 -76 581 0
-581 575 0
-581 76 0
-576 582 0
-77 582 0
-582 576 77 0
-577 583 0
-576 -77 583 0
-583 577 576 0
-583 577 77 0
-578 584 0
-577 -77 584 0
-584 578 577 0
-584 578 77 0
-579 585 0
-578 -77 585 0
-585 579 578 0
-585 579 77 0
-580 586 0
-579 -77 586 0
-586 580 579 0
-586 580 77 0
-581 587 0
-580 -77 587 0
-587 581 580 0
-587 581 77 0
-581 -77 588 0
-588 581 0
-588 77 0
-582 589 0
-78 589 0
-589 582 78 0
-583 590 0
-582 -78 590 0
-590 583 582 0
-590 583 78 0
-584 591 0
-583 -78 591 0
-591 584 583 0
-591 584 78 0
-585 592 0
-584 -78 592 0
-592 585 584 0
-592 585 78 0
-586 593 0
-585 -78 593 0
-593 586 585 0
-593 586 78 0
-587 594 0
-586 -78 594 0
-594 587 586 0
-594 587 78 0
-588 595 0
-587 -78 595 0
-595 588 587 0
-595 588 78 0
-588 -78 596 0
-596 588 0
-596 78 0
-589 597 0
-79 597 0
-597 589 79 0
-590 598 0
-589 -79 598 0
-598 590 589 0
-598 590 79 0
-591 599 0
-590 -79 599 0
-599 591 590 0
-599 591 79 0
-592 600 0
-591 -79 600 0
-600 592 591 0
-600 592 79 0
-593 601 0
-592 -79 601 0
-601 593 592 0
-601 593 79 0
-594 602 0
-593 -79 602 0
-602 594 593 0
-602 594 79 0
-595 603 0
-594 -79 603 0
-603 595 594 0
-603 595 79 0
-596 604 0
-595 -79 604 0
-604 596 595 0
-604 596 79 0
-597 605 0
-80 605 0
-605 597 80 0
-598 606 0
-597 -80 606 0
-606 598 597 0
-606 598 80 0
-599 607 0
-598 -80 607 0
-607 599 598 0
-607 599 80 0
-600 608 0
-599 -80 608 0
-608 600 599 0
-608 600 80 0
-601 609 0
-600 -80 609 0
-609 601 600 0
-609 601 80 0
-602 610 0
-601 -80 610 0
-610 602 601 0
-610 602 80 0
-603 611 0
-602 -80 611 0
-611 603 602 0
-611 603 80 0
-604 612 0
-603 -80 612 0
-612 604 603 0
-612 604 80 0
-605 613 0
-81 613 0
-613 605 81 0
-606 614 0
-605 -81 614 0
-614 606 605 0
-614 606 81 0
-607 615 0
-606 -81 615 0
-615 607 606 0
-615 607 81 0
-608 616 0
-607 -81 616 0
-616 608 607 0
-616 608 81 0
-609 617 0
-608 -81 617 0
-617 609 608 0
-617 609 81 0
-610 618 0
-609 -81 618 0
-618 610 609 0
-618 610 81 0
-611 619 0
-610 -81 619 0
-619 611 610 0
-619 611 81 0
-612 620 0
-611 -81 620 0
-620 612 611 0
-620 612 81 0
-613 621 0
-82 621 0
-621 613 82 0
-614 622 0
-613 -82 622 0
-622 614 613 0
-622 614 82 0
-615 623 0
-614 -82 623 0
-623 615 614 0
-623 615 82 0
-616 624 0
-615 -82 624 0
-624 616 615 0
-624 616 82 0
-617 625 0
-616 -82 625 0
-625 617 616 0
-625 617 82 0
-618 626 0
-617 -82 626 0
-626 618 617 0
-626 618 82 0
-619 627 0
-618 -82 627 0
-627 619 618 0
-627 619 82 0
-620 628 0
-619 -82 628 0
-628 620 619 0
-628 620 82 0
-621 629 0
-83 629 0
-629 621 83 0
-622 630 0
-621 -83 630 0
-630 622 621 0
-630 622 83 0
-623 631 0
-622 -83 631 0
-631 623 622 0
-631 623 83 0
-624 632 0
-623 -83 632 0
-632 624 623 0
-632 624 83 0
-625 633 0
-624 -83 633 0
-633 625 624 0
-633 625 83 0
-626 634 0
-625 -83 634 0
-634 626 625 0
-634 626 83 0
-627 635 0
-626 -83 635 0
-635 627 626 0
-635 627 83 0
-628 636 0
-627 -83 636 0
-636 628 627 0
-636 628 83 0
-629 637 0
-84 637 0
-637 629 84 0
-630 638 0
-629 -84 638 0
-638 630 629 0
-638 630 84 0
-631 639 0
-630 -84 639 0
-639 631 630 0
-639 631 84 0
-632 640 0
-631 -84 640 0
-640 632 631 0
-640 632 84 0
-633 641 0
-632 -84 641 0
-641 633 632 0
-641 633 84 0
-634 642 0
-633 -84 642 0
-642 634 633 0
-642 634 84 0
-635 643 0
-634 -84 643 0
-643 635 634 0
-643 635 84 0
-636 644 0
-635 -84 644 0
-644 636 635 0
-644 636 84 0
643 0
-644 0
-85 645 0
-645 85 0
-645 646 0
-86 646 0
-646 645 86 0
-645 -86 647 0
-647 645 0
-647 86 0
-646 648 0
-87 648 0
-648 646 87 0
-647 649 0
-646 -87 649 0
-649 647 646 0
-649 647 87 0
-647 -87 650 0
-650 647 0
-650 87 0
-648 651 0
-88 651 0
-651 648 88 0
-649 652 0
-648 -88 652 0
-652 649 648 0
-652 649 88 0
-650 653 0
-649 -88 653 0
-653 650 649 0
-653 650 88 0
-650 -88 654 0
-654 650 0
-654 88 0
-651 655 0
-89 655 0
-655 651 89 0
-652 656 0
-651 -89 656 0
-656 652 651 0
-656 652 89 0
-653 657 0
-652 -89 657 0
-657 653 652 0
-657 653 89 0
-654 658 0
-653 -89 658 0
-658 654 653 0
-658 654 89 0
-654 -89 659 0
-659 654 0
-659 89 0
-655 660 0
-90 660 0
-660 655 90 0
-656 661 0
-655 -90 661 0
-661 656 655 0
-661 656 90 0
-657 662 0
-656 -90 662 0
-662 657 656 0
-662 657 90 0
-658 663 0
-657 -90 663 0
-663 658 657 0
-663 658 90 0
-659 664 0
-658 -90 664 0
-664 659 658 0
-664 659 90 0
-659 -90 665 0
-665 659 0
-665 90 0
-660 666 0
-91 666 0
-666 660 91 0
-661 667 0
-660 -91 667 0
-667 661 660 0
-667 661 91 0
-662 668 0
-661 -91 668 0
-668 662 661 0
-668 662 91 0
-663 669 0
-662 -91 669 0
-669 663 662 0
-669 663 91 0
-664 670 0
-663 -91 670 0
-670 664 663 0
-670 664 91 0
-665 671 0
-664 -91 671 0
-671 665 664 0
-671 665 91 0
-665 -91 672 0
-672 665 0
-672 91 0
-666 673 0
-92 673 0
-673 666 92 0
-667 674 0
-666 -92 674 0
-674 667 666 0
-674 667 92 0
-668 675 0
-667 -92 675 0
-675 668 667 0
-675 668 92 0
-669 676 0
-668 -92 676 0
-676 669 668 0
-676 669 92 0
-670 677 0
-669 -92 677 0
-677 670 669 0
-677 670 92 0
-671 678 0
-670 -92 678 0
-678 671 670 0
-678 671 92 0
-672 679 0
-671 -92 679 0
-679 672 671 0
-679 672 92 0
-672 -92 680 0
-680 672 0
-680 92 0
-673 681 0
-93 681 0
-681 673 93 0
-674 682 0
-673 -93 682 0
-682 674 673 0
-682 674 93 0
-675 683 0
-674 -93 683 0
-683 675 674 0
-683 675 93 0
-676 684 0
-675 -93 684 0
-684 676 675 0
-684 676 93 0
-677 685 0
-676 -93 685 0
-685 677 676 0
-685 677 93 0
-678 686 0
-677 -93 686 0
-686 678 677 0
-686 678 93 0
-679 687 0
-678 -93 687 0
-687 679 678 0
-687 679 93 0
-680 688 0
-679 -93 688 0
-688 680 679 0
-688 680 93 0
-681 689 0
-94 689 0
-689 681 94 0
-682 690 0
-681 -94 690 0
-690 682 681 0
-690 682 94 0
-683 691 0
-682 -94 691 0
-691 683 682 0
-691 683 94 0
-684 692 0
-683 -94 692 0
-692 684 683 0
-692 684 94 0
-685 693 0
-684 -94 693 0
-693 685 684 0
-693 685 94 0
-686 694 0
-685 -94 694 0
-694 686 685 0
-694 686 94 0
-687 695 0
-686 -94 695 0
-695 687 686 0
-695 687 94 0
-688 696 0
-687 -94 696 0
-696 688 687 0
-696 688 94 0
-689 697 0
-95 697 0
-697 689 95 0
-690 698 0
-689 -95 698 0
-698 690 689 0
-698 690 95 0
-691 699 0
-690 -95 699 0
-699 691 690 0
-699 691 95 0
-692 700 0
-691 -95 700 0
-700 692 691 0
-700 692 95 0
-693 701 0
-692 -95 701 0
-701 693 692 0
-701 693 95 0
-694 702 0
-693 -95 702 0
-702 694 693 0
-702 694 95 0
-695 703 0
-694 -95 703 0
-703 695 694 0
-703 695 95 0
-696 704 0
-695 -95 704 0
-704 696 695 0
-704 696 95 0
-697 705 0
-96 705 0
-705 697 96 0
-698 706 0
-697 -96 706 0
-706 698 697 0
-706 698 96 0
-699 707 0
-698 -96 707 0
-707 699 698 0
-707 699 96 0
-700 708 0
-699 -96 708 0
-708 700 699 0
-708 700 96 0
-701 709 0
-700 -96 709 0
-709 701 700 0
-709 701 96 0
-702 710 0
-701 -96 710 0
-710 702 701 0
-710 702 96 0
-703 711 0
-702 -96 711 0
-711 703 702 0
-711 703 96 0
-704 712 0
-703 -96 712 0
-712 704 703 0
-712 704 96 0
-705 713 0
-97 713 0
-713 705 97 0
-706 714 0
-705 -97 714 0
-714 706 705 0
-714 706 97 0
-707 715 0
-706 -97 715 0
-715 707 706 0
-715 707 97 0
-708 716 0
-707 -97 716 0
-716 708 707 0
-716 708 97 0
-709 717 0
-708 -97 717 0
-717 709 708 0
-717 709 97 0
-710 718 0
-709 -97 718 0
-718 710 709 0
-718 710 97 0
-711 719 0
-710 -97 719 0
-719 711 710 0
-719 711 97 0
-712 720 0
-711 -97 720 0
-720 712 711 0
-720 712 97 0
-713 721 0
-98 721 0
-721 713 98 0
-714 722 0
-713 -98 722 0
-722 714 713 0
-722 714 98 0
-715 723 0
-714 -98 723 0
-723 715 714 0
-723 715 98 0
-716 724 0
-715 -98 724 0
-724 716 715 0
-724 716 98 0
-717 725 0
-716 -98 725 0
-725 717 716 0
-725 717 98 0
-718 726 0
-717 -98 726 0
-726 718 717 0
-726 718 98 0
-719 727 0
-718 -98 727 0
-727 719 718 0
-727 719 98 0
-720 728 0
-719 -98 728 0
-728 720 719 0
-728 720 98 0
727 0
-728 0
-99 729 0
-729 99 0
-729 730 0
-100 730 0
-730 729 100 0
-729 -100 731 0
-731 729 0
-731 100 0
-730 732 0
-101 732 0
-732 730 101 0
-731 733 0
-730 -101 733 0
-733 731 730 0
-733 731 101 0
-731 -101 734 0
-734 731 0
-734 101 0
-732 735 0
-102 735 0
-735 732 102 0
-733 736 0
-732 -102 736 0
-736 733 732 0
-736 733 102 0
-734 737 0
-733 -102 737 0
-737 734 733 0
-737 734 102 0
-734 -102 738 0
-738 734 0
-738 102 0
-735 739 0
-103 739 0
-739 735 103 0
-736 740 0
-735 -103 740 0
-740 736 735 0
-740 736 103 0
-737 741 0
-736 -103 741 0
-741 737 736 0
-741 737 103 0
-738 742 0
-737 -103 742 0
-742 738 737 0
-742 738 103 0
-738 -103 743 0
-743 738 0
-743 103 0
-739 744 0
-104 744 0
-744 739 104 0
-740 745 0
-739 -104 745 0
-745 740 739 0
-745 740 104 0
-741 746 0
-740 -104 746 0
-746 741 740 0
-746 741 104 0
-742 747 0
-741 -104 747 0
-747 742 741 0
-747 742 104 0
-743 748 0
-742 -104 748 0
-748 743 742 0
-748 743 104 0
-743 -104 749 0
-749 743 0
-749 104 0
-744 750 0
-105 750 0
-750 744 105 0
-745 751 0
-744 -105 751 0
-751 745 744 0
-751 745 105 0
-746 752 0
-745 -105 752 0
-752 746 745 0
-752 746 105 0
-747 753 0
-746 -105 753 0
-753 747 746 0
-753 747 105 0
-748 754 0
-747 -105 754 0
-754 748 747 0
-754 748 105 0
-749 755 0
-748 -105 755 0
-755 749 748 0
-755 749 105 0
-749 -105 756 0
-756 749 0
-756 105 0
-750 757 0
-106 757 0
-757 750 106 0
-751 758 0
-750 -106 758 0
-758 751 750 0
-758 751 106 0
-752 759 0
-751 -106 759 0
-759 752 751 0
-759 752 106 0
-753 760 0
-752 -106 760 0
-760 753 752 0
-760 753 106 0
-754 761 0
-753 -106 761 0
-761 754 753 0
-761 754 106 0
-755 762 0
-754 -106 762 0
-762 755 754 0
-762 755 106 0
-756 763 0
-755 -106 763 0
-763 756 755 0
-763 756 106 0
-756 -106 764 0
-764 756 0
-764 106 0
-757 765 0
-107 765 0
-765 757 107 0
-758 766 0
-757 -107 766 0
-766 758 757 0
-766 758 107 0
-759 767 0
-758 -107 767 0
-767 759 758 0
-767 759 107 0
-760 768 0
-759 -107 768 0
-768 760 759 0
-768 760 107 0
-761 769 0
-760 -107 769 0
-769 761 760 0
-769 761 107 0
-762 770 0
-761 -107 770 0
-770 762 761 0
-770 762 107 0
-763 771 0
-762 -107 771 0
-771 763 762 0
-771 763 107 0
-764 772 0
-763 -107 772 0
-772 764 763 0
-772 764 107 0
-765 773 0
-108 773 0
-773 765 108 0
-766 774 0
-765 -108 774 0
-774 766 765 0
-774 766 108 0
-767 775 0
-766 -108 775 0
-775 767 766 0
-775 767 108 0
-768 776 0
-767 -108 776 0
-776 768 767 0
-776 768 108 0
-769 777 0
-768 -108 777 0
-777 769 768 0
-777 769 108 0
-770 778 0
-769 -108 778 0
-778 770 769 0
-778 770 108 0
-771 779 0
-770 -108 779 0
-779 771 770 0
-779 771 108 0
-772 780 0
-771 -108 780 0
-780 772 771 0
-780 772 108 0
-773 781 0
-109 781 0
-781 773 109 0
-774 782 0
-773 -109 782 0
-782 774 773 0
-782 774 109 0
-775 783 0
-774 -109 783 0
-783 775 774 0
-783 775 109 0
-776 784 0
-775 -109 784 0
-784 776 775 0
-784 776 109 0
-777 785 0
-776 -109 785 0
-785 777 776 0
-785 777 109 0
-778 786 0
-777 -109 786 0
-786 778 777 0
-786 778 109 0
-779 787 0
-778 -109 787 0
-787 779 778 0
-787 779 109 0
-780 788 0
-779 -109 788 0
-788 780 779 0
-788 780 109 0
-781 789 0
-110 789 0
-789 781 110 0
-782 790 0
-781 -110 790 0
-790 782 781 0
-790 782 110 0
-783 791 0
-782 -110 791 0
-791 783 782 0
-791 783 110 0
-784 792 0
-783 -110 792 0
-792 784 783 0
-792 784 110 0
-785 793 0
-784 -110 793 0
-793 785 784 0
-793 785 110 0
-786 794 0
-785 -110 794 0
-794 786 785 0
-794 786 110 0
-787 795 0
-786 -110 795 0
-795 787 786 0
-795 787 110 0
-788 796 0
-787 -110 796 0
-796 788 787 0
-796 788 110 0
-789 797 0
-111 797 0
-797 789 111 0
-790 798 0
-789 -111 798 0
-798 790 789 0
-798 790 111 0
-791 799 0
-790 -111 799 0
-799 791 790 0
-799 791 111 0
-792 800 0
-791 -111 800 0
-800 792 791 0
-800 792 111 0
-793 801 0
-792 -111 801 0
-801 793 792 0
-801 793 111 0
-794 802 0
-793 -111 802 0
-802 794 793 0
-802 794 111 0
-795 803 0
-794 -111 803 0
-803 795 794 0
-803 795 111 0
-796 804 0
-795 -111 804 0
-804 796 795 0
-804 796 111 0
-797 805 0
-112 805 0
-805 797 112 0
-798 806 0
-797 -112 806 0
-806 798 797 0
-806 798 112 0
-799 807 0
-798 -112 807 0
-807 799 798 0
-807 799 112 0
-800 808 0
-799 -112 808 0
-808 800 799 0
-808 800 112 0
-801 809 0
-800 -112 809 0
-809 801 800 0
-809 801 112 0
-802 810 0
-801 -112 810 0
-810 802 801 0
-810 802 112 0
-803 811 0
-802 -112 811 0
-811 803 802 0
-811 803 112 0
-804 812 0
-803 -112 812 0
-812 804 803 0
-812 804 112 0
811 0
-812 0
-113 813 0
-813 113 0
-813 814 0
-114 814 0
-814 813 114 0
-813 -114 815 0
-815 813 0
-815 114 0
-814 816 0
-115 816 0
-816 814 115 0
-815 817 0
-814 -115 817 0
-817 815 814 0
-817 815 115 0
-815 -115 818 0
-818 815 0
-818 115 0
-816 819 0
-116 819 0
-819 816 116 0
-817 820 0
-816 -116 820 0
-820 817 816 0
-820 817 116 0
-818 821 0
-817 -116 821 0
-821 818 817 0
-821 818 116 0
-818 -116 822 0
-822 818 0
-822 116 0
-819 823 0
-117 823 0
-823 819 117 0
-820 824 0
-819 -117 824 0
-824 820 819 0
-824 820 117 0
-821 825 0
-820 -117 825 0
-825 821 820 0
-825 821 117 0
-822 826 0
-821 -117 826 0
-826 822 821 0
-826 822 117 0
-822 -117 827 0
-827 822 0
-827 117 0
-823 828 0
-118 828 0
-828 823 118 0
-824 829 0
-823 -118 829 0
-829 824 823 0
-829 824 118 0
-825 830 0
-824 -118 830 0
-830 825 824 0
-830 825 118 0
-826 831 0
-825 -118 831 0
-831 826 825 0
-831 826 118 0
-827 832 0
-826 -118 832 0
-832 827 826 0
-832 827 118 0
-827 -118 833 0
-833 827 0
-833 118 0
-828 834 0
-119 834 0
-834 828 119 0
-829 835 0
-828 -119 835 0
-835 829 828 0
-835 829 119 0
-830 836 0
-829 -119 836 0
-836 830 829 0
-836 830 119 0
-831 837 0
-830 -119 837 0
-837 831 830 0
-837 831 119 0
-832 838 0
-831 -119 838 0
-838 832 831 0
-838 832 119 0
-833 839 0
-832 -119 839 0
-839 833 832 0
-839 833 119 0
-833 -119 840 0
-840 833 0
-840 119 0
-834 841 0
-120 841 0
-841 834 120 0
-835 842 0
-834 -120 842 0
-842 835 834 0
-842 835 120 0
-836 843 0
-835 -120 843 0
-843 836 835 0
-843 836 120 0
-837 844 0
-836 -120 844 0
-844 837 836 0
-844 837 120 0
-838 845 0
-837 -120 845 0
-845 838 837 0
-845 838 120 0
-839 846 0
-838 -120 846 0
-846 839 838 0
-846 839 120 0
-840 847 0
-839 -120 847 0
-847 840 839 0
-847 840 120 0
-840 -120 848 0
-848 840 0
-848 120 0
-841 849 0
-121 849 0
-849 841 121 0
-842 850 0
-841 -121 850 0
-850 842 841 0
-850 842 121 0
-843 851 0
-842 -121 851 0
-851 843 842 0
-851 843 121 0
-844 852 0
-843 -121 852 0
-852 844 843 0
-852 844 121 0
-845 853 0
-844 -121 853 0
-853 845 844 0
-853 845 121 0
-846 854 0
-845 -121 854 0
-854 846 845 0
-854 846 121 0
-847 855 0
-846 -121 855 0
-855 847 846 0
-855 847 121 0
-848 856 0
-847 -121 856 0
-856 848 847 0
-856 848 121 0
-849 857 0
-122 857 0
-857 849 122 0
-850 858 0
-849 -122 858 0
-858 850 849 0
-858 850 122 0
-851 859 0
-850 -122 859 0
-859 851 850 0
-859 851 122 0
-852 860 0
-851 -122 860 0
-860 852 851 0
-860 852 122 0
-853 861 0
-852 -122 861 0
-861 853 852 0
-861 853 122 0
-854 862 0
-853 -122 862 0
-862 854 853 0
-862 854 122 0
-855 863 0
-854 -122 863 0
-863 855 854 0
-863 855 122 0
-856 864 0
-855 -122 864 0
-864 856 855 0
-864 856 122 0
-857 865 0
-123 865 0
-865 857 123 0
-858 866 0
-857 -123 866 0
-866 858 857 0
-866 858 123 0
-859 867 0
-858 -123 867 0
-867 859 858 0
-867 859 123 0
-860 868 0
-859 -123 868 0
-868 860 859 0
-868 860 123 0
-861 869 0
-860 -123 869 0
-869 861 860 0
-869 861 123 0
-862 870 0
-861 -123 870 0
-870 862 861 0
-870 862 123 0
-863 871 0
-862 -123 871 0
-871 863 862 0
-871 863 123 0
-864 872 0
-863 -123 872 0
-872 864 863 0
-872 864 123 0
-865 873 0
-124 873 0
-873 865 124 0
-866 874 0
-865 -124 874 0
-874 866 865 0
-874 866 124 0
-867 875 0
-866 -124 875 0
-875 867 866 0
-875 867 124 0
-868 876 0
-867 -124 876 0
-876 868 867 0
-876 868 124 0
-869 877 0
-868 -124 877 0
-877 869 868 0
-877 869 124 0
-870 878 0
-869 -124 878 0
-878 870 869 0
-878 870 124 0
-871 879 0
-870 -124 879 0
-879 871 870 0
-879 871 124 0
-872 880 0
-871 -124 880 0
-880 872 871 0
-880 872 124 0
-873 881 0
-125 881 0
-881 873 125 0
-874 882 0
-873 -125 882 0
-882 874 873 0
-882 874 125 0
-875 883 0
-874 -125 883 0
-883 875 874 0
-883 875 125 0
-876 884 0
-875 -125 884 0
-884 876 875 0
-884 876 125 0
-877 885 0
-876 -125 885 0
-885 877 876 0
-885 877 125 0
-878 886 0
-877 -125 886 0
-886 878 877 0
-886 878 125 0
-879 887 0
-878 -125 887 0
-887 879 878 0
-887 879 125 0
-880 888 0
-879 -125 888 0
-888 880 879 0
-888 880 125 0
-881 889 0
-126 889 0
-889 881 126 0
-882 890 0
-881 -126 890 0
-890 882 881 0
-890 882 126 0
-883 891 0
-882 -126 891 0
-891 883 882 0
-891 883 126 0
-884 892 0
-883 -126 892 0
-892 884 883 0
-892 884 126 0
-885 893 0
-884 -126 893 0
-893 885 884 0
-893 885 126 0
-886 894 0
-885 -126 894 0
-894 886 885 0
-894 886 126 0
-887 895 0
-886 -126 895 0
-895 887 886 0
-895 887 126 0
-888 896 0
-887 -126 896 0
-896 888 887 0
-896 888 126 0
895 0
-896 0
-127 897 0
-897 127 0
-897 898 0
-128 898 0
-898 897 128 0
-897 -128 899 0
-899 897 0
-899 128 0
-898 900 0
-129 900 0
-900 898 129 0
-899 901 0
-898 -129 901 0
-901 899 898 0
-901 899 129 0
-899 -129 902 0
-902 899 0
-902 129 0
-900 903 0
-130 903 0
-903 900 130 0
-901 904 0
-900 -130 904 0
-904 901 900 0
-904 901 130 0
-902 905 0
-901 -130 905 0
-905 902 901 0
-905 902 130 0
-902 -130 906 0
-906 902 0
-906 130 0
-903 907 0
-131 907 0
-907 903 131 0
-904 908 0
-903 -131 908 0
-908 904 903 0
-908 904 131 0
-905 909 0
-904 -131 909 0
-909 905 904 0
-909 905 131 0
-906 910 0
-905 -131 910 0
-910 906 905 0
-910 906 131 0
-906 -131 911 0
-911 906 0
-911 131 0
-907 912 0
-132 912 0
-912 907 132 0
-908 913 0
-907 -132 913 0
-913 908 907 0
-913 908 132 0
-909 914 0
-908 -132 914 0
-914 909 908 0
-914 909 132 0
-910 915 0
-909 -132 915 0
-915 910 909 0
-915 910 132 0
-911 916 0
-910 -132 916 0
-916 911 910 0
-916 911 132 0
-911 -132 917 0
-917 911 0
-917 132 0
-912 918 0
-133 918 0
-918 912 133 0
-913 919 0
-912 -133 919 0
-919 913 912 0
-919 913 133 0
-914 920 0
-913 -133 920 0
-920 914 913 0
-920 914 133 0
-915 921 0
-914 -133 921 0
-921 915 914 0
-921 915 133 0
-916 922 0
-915 -133 922 0
-922 916 915 0
-922 916 133 0
-917 923 0
-916 -133 923 0
-923 917 916 0
-923 917 133 0
-917 -133 924 0
-924 917 0
-924 133 0
-918 925 0
-134 925 0
-925 918 134 0
-919 926 0
-918 -134 926 0
-926 919 918 0
-926 919 134 0
-920 927 0
-919 -134 927 0
-927 920 919 0
-927 920 134 0
-921 928 0
-920 -134 928 0
-928 921 920 0
-928 921 134 0
-922 929 0
-921 -134 929 0
-929 922 921 0
-929 922 134 0
-923 930 0
-922 -134 930 0
-930 923 922 0
-930 923 134 0
-924 931 0
-923 -134 931 0
-931 924 923 0
-931 924 134 0
-924 -134 932 0
-932 924 0
-932 134 0
-925 933 0
-135 933 0
-933 925 135 0
-926 934 0
-925 -135 934 0
-934 926 925 0
-934 926 135 0
-927 935 0
-926 -135 935 0
-935 927 926 0
-935 927 135 0
-928 936 0
-927 -135 936 0
-936 928 927 0
-936 928 135 0
-929 937 0
-928 -135 937 0
-937 929 928 0
-937 929 135 0
-930 938 0
-929 -135 938 0
-938 930 929 0
-938 930 135 0
-931 939 0
-930 -135 939 0
-939 931 930 0
-939 931 135 0
-932 940 0
-931 -135 940 0
-940 932 931 0
-940 932 135 0
-933 941 0
-136 941 0
-941 933 136 0
-934 942 0
-933 -136 942 0
-942 934 933 0
-942 934 136 0
-935 943 0
-934 -136 943 0
-943 935 934 0
-943 935 136 0
-936 944 0
-935 -136 944 0
-944 936 935 0
-944 936 136 0
-937 945 0
-936 -136 945 0
-945 937 936 0
-945 937 136 0
-938 946 0
-937 -136 946 0
-946 938 937 0
-946 938 136 0
-939 947 0
-938 -136 947 0
-947 939 938 0
-947 939 136 0
-940 948 0
-939 -136 948 0
-948 940 939 0
-948 940 136 0
-941 949 0
-137 949 0
-949 941 137 0
-942 950 0
-941 -137 950 0
-950 942 941 0
-950 942 137 0
-943 951 0
-942 -137 951 0
-951 943 942 0
-951 943 137 0
-944 952 0
-943 -137 952 0
-952 944 943 0
-952 944 137 0
-945 953 0
-944 -137 953 0
-953 945 944 0
-953 945 137 0
-946 954 0
-945 -137 954 0
-954 946 945 0
-954 946 137 0
-947 955 0
-946 -137 955 0
-955 947 946 0
-955 947 137 0
-948 956 0
-947 -137 956 0
-956 948 947 0
-956 948 137 0
-949 957 0
-138 957 0
-957 949 138 0
-950 958 0
-949 -138 958 0
-958 950 949 0
-958 950 138 0
-951 959 0
-950 -138 959 0
-959 951 950 0
-959 951 138 0
-952 960 0
-951 -138 960 0
-960 952 951 0
-960 952 138 0
-953 961 0
-952 -138 961 0
-961 953 952 0
-961 953 138 0
-954 962 0
-953 -138 962 0
-962 954 953 0
-962 954 138 0
-955 963 0
-954 -138 963 0
-963 955 954 0
-963 955 138 0
-956 964 0
-955 -138 964 0
-964 956 955 0
-964 956 138 0
-957 965 0
-139 965 0
-965 957 139 0
-958 966 0
-957 -139 966 0
-966 958 957 0
-966 958 139 0
-959 967 0
-958 -139 967 0
-967 959 958 0
-967 959 139 0
-960 968 0
-959 -139 968 0
-968 960 959 0
-968 960 139 0
-961 969 0
-960 -139 969 0
-969 961 960 0
-969 961 139 0
-962 970 0
-961 -139 970 0
-970 962 961 0
-970 962 139 0
-963 971 0
-962 -139 971 0
-971 963 962 0
-971 963 139 0
-964 972 0
-963 -139 972 0
-972 964 963 0
-972 964 139 0
-965 973 0
-140 973 0
-973 965 140 0
-966 974 0
-965 -140 974 0
-974 966 965 0
-974 966 140 0
-967 975 0
-966 -140 975 0
-975 967 966 0
-975 967 140 0
-968 976 0
-967 -140 976 0
-976 968 967 0
-976 968 140 0
-969 977 0
-968 -140 977 0
-977 969 968 0
-977 969 140 0
-970 978 0
-969 -140 978 0
-978 970 969 0
-978 970 140 0
-971 979 0
-970 -140 979 0
-979 971 970 0
-979 971 140 0
-972 980 0
-971 -140 980 0
-980 972 971 0
-980 972 140 0
979 0
-980 0
-1 981 0
-981 1 0
-981 982 0
-15 982 0
-982 981 15 0
-981 -15 983 0
-983 981 0
-983 15 0
-982 984 0
-29 984 0
-984 982 29 0
-983 985 0
-982 -29 985 0
-985 983 982 0
-985 983 29 0
-983 -29 986 0
-986 983 0
-986 29 0
-984 987 0
-43 987 0
-987 984 43 0
-985 988 0
-984 -43 988 0
-988 985 984 0
-988 985 43 0
-986 989 0
-985 -43 989 0
-989 986 985 0
-989 986 43 0
-986 -43 990 0
-990 986 0
-990 43 0
-987 991 0
-57 991 0
-991 987 57 0
-988 992 0
-987 -57 992 0
-992 988 987 0
-992 988 57 0
-989 993 0
-988 -57 993 0
-993 989 988 0
-993 989 57 0
-990 994 0
-989 -57 994 0
-994 990 989 0
-994 990 57 0
-990 -57 995 0
-995 990 0
-995 57 0
-991 996 0
-71 996 0
-996 991 71 0
-992 997 0
-991 -71 997 0
-997 992 991 0
-997 992 71 0
-993 998 0
-992 -71 998 0
-998 993 992 0
-998 993 71 0
-994 999 0
-993 -71 999 0
-999 994 993 0
-999 994 71 0
-995 1000 0
-994 -71 1000 0
-1000 995 994 0
-1000 995 71 0
-995 -71 1001 0
-1001 995 0
-1001 71 0
-996 1002 0
-85 1002 0
-1002 996 85 0
-997 1003 0
-996 -85 1003 0
-1003 997 996 0
-1003 997 85 0
-998 1004 0
-997 -85 1004 0
-1004 998 997 0
-1004 998 85 0
-999 1005 0
-998 -85 1005 0
-1005 999 998 0
-1005 999 85 0
-1000 1006 0
-999 -85 1006 0
-1006 1000 999 0
-1006 1000 85 0
-1001 1007 0
-1000 -85 1007 0
-1007 1001 1000 0
-1007 1001 85 0
-1002 1008 0
-99 1008 0
-1008 1002 99 0
-1003 1009 0
-1002 -99 1009 0
-1009 1003 1002 0
-1009 1003 99 0
-1004 1010 0
-1003 -99 1010 0
-1010 1004 1003 0
-1010 1004 99 0
-1005 1011 0
-1004 -99 1011 0
-1011 1005 1004 0
-1011 1005 99 0
-1006 1012 0
-1005 -99 1012 0
-1012 1006 1005 0
-1012 1006 99 0
-1007 1013 0
-1006 -99 1013 0
-1013 1007 1006 0
-1013 1007 99 0
-1008 1014 0
-113 1014 0
-1014 1008 113 0
-1009 1015 0
-1008 -113 1015 0
-1015 1009 1008 0
-1015 1009 113 0
-1010 1016 0
-1009 -113 1016 0
-1016 1010 1009 0
-1016 1010 113 0
-1011 1017 0
-1010 -113 1017 0
-1017 1011 1010 0
-1017 1011 113 0
-1012 1018 0
-1011 -113 1018 0
-1018 1012 1011 0
-1018 1012 113 0
-1013 1019 0
-1012 -113 1019 0
-1019 1013 1012 0
-1019 1013 113 0
-1014 1020 0
-127 1020 0
-1020 1014 127 0
-1015 1021 0
-1014 -127 1021 0
-1021 1015 1014 0
-1021 1015 127 0
-1016 1022 0
-1015 -127 1022 0
-1022 1016 1015 0
-1022 1016 127 0
-1017 1023 0
-1016 -127 1023 0
-1023 1017 1016 0
-1023 1017 127 0
-1018 1024 0
-1017 -127 1024 0
-1024 1018 1017 0
-1024 1018 127 0
-1019 1025 0
-1018 -127 1025 0
-1025 1019 1018 0
-1025 1019 127 0
1024 0
-1025 0
-2 1026 0
-1026 2 0
-1026 1027 0
-16 1027 0
-1027 1026 16 0
-1026 -16 1028 0
-1028 1026 0
-1028 16 0
-1027 1029 0
-30 1029 0
-1029 1027 30 0
-1028 1030 0
-1027 -30 1030 0
-1030 1028 1027 0
-1030 1028 30 0
-1028 -30 1031 0
-1031 1028 0
-1031 30 0
-1029 1032 0
-44 1032 0
-1032 1029 44 0
-1030 1033 0
-1029 -44 1033 0
-1033 1030 1029 0
-1033 1030 44 0
-1031 1034 0
-1030 -44 1034 0
-1034 1031 1030 0
-1034 1031 44 0
-1031 -44 1035 0
-1035 1031 0
-1035 44 0
-1032 1036 0
-58 1036 0
-1036 1032 58 0
-1033 1037 0
-1032 -58 1037 0
-1037 1033 1032 0
-1037 1033 58 0
-1034 1038 0
-1033 -58 1038 0
-1038 1034 1033 0
-1038 1034 58 0
-1035 1039 0
-1034 -58 1039 0
-1039 1035 1034 0
-1039 1035 58 0
-1035 -58 1040 0
-1040 1035 0
-1040 58 0
-1036 1041 0
-72 1041 0
-1041 1036 72 0
-1037 1042 0
-1036 -72 1042 0
-1042 1037 1036 0
-1042 1037 72 0
-1038 1043 0
-1037 -72 1043 0
-1043 1038 1037 0
-1043 1038 72 0
-1039 1044 0
-1038 -72 1044 0
-1044 1039 1038 0
-1044 1039 72 0
-1040 1045 0
-1039 -72 1045 0
-1045 1040 1039 0
-1045 1040 72 0
-1040 -72 1046 0
-1046 1040 0
-1046 72 0
-1041 1047 0
-86 1047 0
-1047 1041 86 0
-1042 1048 0
-1041 -86 1048 0
-1048 1042 1041 0
-1048 1042 86 0
-1043 1049 0
-1042 -86 1049 0
-1049 1043 1042 0
-1049 1043 86 0
-1044 1050 0
-1043 -86 1050 0
-1050 1044 1043 0
-1050 1044 86 0
-1045 1051 0
-1044 -86 1051 0
-1051 1045 1044 0
-1051 1045 86 0
-1046 1052 0
-1045 -86 1052 0
-1052 1046 1045 0
-1052 1046 86 0
-1047 1053 0
-100 1053 0
-1053 1047 100 0
-1048 1054 0
-1047 -100 1054 0
-1054 1048 1047 0
-1054 1048 100 0
-1049 1055 0
-1048 -100 1055 0
-1055 1049 1048 0
-1055 1049 100 0
-1050 1056 0
-1049 -100 1056 0
-1056 1050 1049 0
-1056 1050 100 0
-1051 1057 0
-1050 -100 1057 0
-1057 1051 1050 0
-1057 1051 100 0
-1052 1058 0
-1051 -100 1058 0
-1058 1052 1051 0
-1058 1052 100 0
-1053 1059 0
-114 1059 0
-1059 1053 114 0
-1054 1060 0
-1053 -114 1060 0
-1060 1054 1053 0
-1060 1054 114 0
-1055 1061 0
-1054 -114 1061 0
-1061 1055 1054 0
-1061 1055 114 0
-1056 1062 0
-1055 -114 1062 0
-1062 1056 1055 0
-1062 1056 114 0
-1057 1063 0
-1056 -114 1063 0
-1063 1057 1056 0
-1063 1057 114 0
-1058 1064 0
-1057 -114 1064 0
-1064 1058 1057 0
-1064 1058 114 0
-1059 1065 0
-128 1065 0
-1065 1059 128 0
-1060 1066 0
-1059 -128 1066 0
-1066 1060 1059 0
-1066 1060 128 0
-1061 1067 0
-1060 -128 1067 0
-1067 1061 1060 0
-1067 1061 128 0
-1062 1068 0
-1061 -128 1068 0
-1068 1062 1061 0
-1068 1062 128 0
-1063 1069 0
-1062 -128 1069 0
-1069 1063 1062 0
-1069 1063 128 0
-1064 1070 0
-1063 -128 1070 0
-1070 1064 1063 0
-1070 1064 128 0
1069 0
-1070 0
-3 1071 0
-1071 3 0
-1071 1072 0
-17 1072 0
-1072 1071 17 0
-1071 -17 1073 0
-1073 1071 0
-1073 17 0
-1072 1074 0
-31 1074 0
-1074 1072 31 0
-1073 1075 0
-1072 -31 1075 0
-1075 1073 1072 0
-1075 1073 31 0
-1073 -31 1076 0
-1076 1073 0
-1076 31 0
-1074 1077 0
-45 1077 0
-1077 1074 45 0
-1075 1078 0
-1074 -45 1078 0
-1078 1075 1074 0
-1078 1075 45 0
-1076 1079 0
-1075 -45 1079 0
-1079 1076 1075 0
-1079 1076 45 0
-1076 -45 1080 0
-1080 1076 0
-1080 45 0
-1077 1081 0
-59 1081 0
-1081 1077 59 0
-1078 1082 0
-1077 -59 1082 0
-1082 1078 1077 0
-1082 1078 59 0
-1079 1083 0
-1078 -59 1083 0
-1083 1079 1078 0
-1083 1079 59 0
-1080 1084 0
-1079 -59 1084 0
-1084 1080 1079 0
-1084 1080 59 0
-1080 -59 1085 0
-1085 1080 0
-1085 59 0
-1081 1086 0
-73 1086 0
-1086 1081 73 0
-1082 1087 0
-1081 -73 1087 0
-1087 1082 1081 0
-1087 1082 73 0
-1083 1088 0
-1082 -73 1088 0
-1088 1083 1082 0
-1088 1083 73 0
-1084 1089 0
-1083 -73 1089 0
-1089 1084 1083 0
-1089 1084 73 0
-1085 1090 0
-1084 -73 1090 0
-1090 1085 1084 0
-1090 1085 73 0
-1085 -73 1091 0
-1091 1085 0
-1091 73 0
-1086 1092 0
-87 1092 0
-1092 1086 87 0
-1087 1093 0
-1086 -87 1093 0
-1093 1087 1086 0
-1093 1087 87 0
-1088 1094 0
-1087 -87 1094 0
-1094 1088 1087 0
-1094 1088 87 0
-1089 1095 0
-1088 -87 1095 0
-1095 1089 1088 0
-1095 1089 87 0
-1090 1096 0
-1089 -87 1096 0
-1096 1090 1089 0
-1096 1090 87 0
-1091 1097 0
-1090 -87 1097 0
-1097 1091 1090 0
-1097 1091 87 0
-1092 1098 0
-101 1098 0
-1098 1092 101 0
-1093 1099 0
-1092 -101 1099 0
-1099 1093 1092 0
-1099 1093 101 0
-1094 1100 0
-1093 -101 1100 0
-1100 1094 1093 0
-1100 1094 101 0
-1095 1101 0
-1094 -101 1101 0
-1101 1095 1094 0
-1101 1095 101 0
-1096 1102 0
-1095 -101 1102 0
-1102 1096 1095 0
-1102 1096 101 0
-1097 1103 0
-1096 -101 1103 0
-1103 1097 1096 0
-1103 1097 101 0
-1098 1104 0
-115 1104 0
-1104 1098 115 0
-1099 1105 0
-1098 -115 1105 0
-1105 1099 1098 0
-1105 1099 115 0
-1100 1106 0
-1099 -115 1106 0
-1106 1100 1099 0
-1106 1100 115 0
-1101 1107 0
-1100 -115 1107 0
-1107 1101 1100 0
-1107 1101 115 0
-1102 1108 0
-1101 -115 1108 0
-1108 1102 1101 0
-1108 1102 115 0
-1103 1109 0
-1102 -115 1109 0
-1109 1103 1102 0
-1109 1103 115 0
-1104 1110 0
-129 1110 0
-1110 1104 129 0
-1105 1111 0
-1104 -129 1111 0
-1111 1105 1104 0
-1111 1105 129 0
-1106 1112 0
-1105 -129 1112 0
-1112 1106 1105 0
-1112 1106 129 0
-1107 1113 0
-1106 -129 1113 0
-1113 1107 1106 0
-1113 1107 129 0
-1108 1114 0
-1107 -129 1114 0
-1114 1108 1107 0
-1114 1108 129 0
-1109 1115 0
-1108 -129 1115 0
-1115 1109 1108 0
-1115 1109 129 0
1114 0
-1115 0
-4 1116 0
-1116 4 0
-1116 1117 0
-18 1117 0
-1117 1116 18 0
-1116 -18 1118 0
-1118 1116 0
-1118 18 0
-1117 1119 0
-32 1119 0
-1119 1117 32 0
-1118 1120 0
-1117 -32 1120 0
-1120 1118 1117 0
-1120 1118 32 0
-1118 -32 1121 0
-1121 1118 0
-1121 32 0
-1119 1122 0
-46 1122 0
-1122 1119 46 0
-1120 1123 0
-1119 -46 1123 0
-1123 1120 1119 0
-1123 1120 46 0
-1121 1124 0
-1120 -46 1124 0
-1124 1121 1120 0
-1124 1121 46 0
-1121 -46 1125 0
-1125 1121 0
-1125 46 0
-1122 1126 0
-60 1126 0
-1126 1122 60 0
-1123 1127 0
-1122 -60 1127 0
-1127 1123 1122 0
-1127 1123 60 0
-1124 1128 0
-1123 -60 1128 0
-1128 1124 1123 0
-1128 1124 60 0
-1125 1129 0
-1124 -60 1129 0
-1129 1125 1124 0
-1129 1125 60 0
-1125 -60 1130 0
-1130 1125 0
-1130 60 0
-1126 1131 0
-74 1131 0
-1131 1126 74 0
-1127 1132 0
-1126 -74 1132 0
-1132 1127 1126 0
-1132 1127 74 0
-1128 1133 0
-1127 -74 1133 0
-1133 1128 1127 0
-1133 1128 74 0
-1129 1134 0
-1128 -74 1134 0
-1134 1129 1128 0
-1134 1129 74 0
-1130 1135 0
-1129 -74 1135 0
-1135 1130 1129 0
-1135 1130 74 0
-1130 -74 1136 0
-1136 1130 0
-1136 74 0
-1131 1137 0
-88 1137 0
-1137 1131 88 0
-1132 1138 0
-1131 -88 1138 0
-1138 1132 1131 0
-1138 1132 88 0
-1133 1139 0
-1132 -88 1139 0
-1139 1133 1132 0
-1139 1133 88 0
-1134 1140 0
-1133 -88 1140 0
-1140 1134 1133 0
-1140 1134 88 0
-1135 1141 0
-1134 -88 1141 0
-1141 1135 1134 0
-1141 1135 88 0
-1136 1142 0
-1135 -88 1142 0
-1142 1136 1135 0
-1142 1136 88 0
-1137 1143 0
-102 1143 0
-1143 1137 102 0
-1138 1144 0
-1137 -102 1144 0
-1144 1138 1137 0
-1144 1138 102 0
-1139 1145 0
-1138 -102 1145 0
-1145 1139 1138 0
-1145 1139 102 0
-1140 1146 0
-1139 -102 1146 0
-1146 1140 1139 0
-1146 1140 102 0
-1141 1147 0
-1140 -102 1147 0
-1147 1141 1140 0
-1147 1141 102 0
-1142 1148 0
-1141 -102 1148 0
-1148 1142 1141 0
-1148 1142 102 0
-1143 1149 0
-116 1149 0
-1149 1143 116 0
-1144 1150 0
-1143 -116 1150 0
-1150 1144 1143 0
-1150 1144 116 0
-1145 1151 0
-1144 -116 1151 0
-1151 1145 1144 0
-1151 1145 116 0
-1146 1152 0
-1145 -116 1152 0
-1152 1146 1145 0
-1152 1146 116 0
-1147 1153 0
-1146 -116 1153 0
-1153 1147 1146 0
-1153 1147 116 0
-1148 1154 0
-1147 -116 1154 0
-1154 1148 1147 0
-1154 1148 116 0
-1149 1155 0
-130 1155 0
-1155 1149 130 0
-1150 1156 0
-1149 -130 1156 0
-1156 1150 1149 0
-1156 1150 130 0
-1151 1157 0
-1150 -130 1157 0
-1157 1151 1150 0
-1157 1151 130 0
-1152 1158 0
-1151 -130 1158 0
-1158 1152 1151 0
-1158 1152 130 0
-1153 1159 0
-1152 -130 1159 0
-1159 1153 1152 0
-1159 1153 130 0
-1154 1160 0
-1153 -130 1160 0
-1160 1154 1153 0
-1160 1154 130 0
1159 0
-1160 0
-5 1161 0
-1161 5 0
-1161 1162 0
-19 1162 0
-1162 1161 19 0
-1161 -19 1163 0
-1163 1161 0
-1163 19 0
-1162 1164 0
-33 1164 0
-1164 1162 33 0
-1163 1165 0
-1162 -33 1165 0
-1165 1163 1162 0
-1165 1163 33 0
-1163 -33 1166 0
-1166 1163 0
-1166 33 0
-1164 1167 0
-47 1167 0
-1167 1164 47 0
-1165 1168 0
-1164 -47 1168 0
-1168 1165 1164 0
-1168 1165 47 0
-1166 1169 0
-1165 -47 1169 0
-1169 1166 1165 0
-1169 1166 47 0
-1166 -47 1170 0
-1170 1166 0
-1170 47 0
-1167 1171 0
-61 1171 0
-1171 1167 61 0
-1168 1172 0
-1167 -61 1172 0
-1172 1168 1167 0
-1172 1168 61 0
-1169 1173 0
-1168 -61 1173 0
-1173 1169 1168 0
-1173 1169 61 0
-1170 1174 0
-1169 -61 1174 0
-1174 1170 1169 0
-1174 1170 61 0
-1170 -61 1175 0
-1175 1170 0
-1175 61 0
-1171 1176 0
-75 1176 0
-1176 1171 75 0
-1172 1177 0
-1171 -75 1177 0
-1177 1172 1171 0
-1177 1172 75 0
-1173 1178 0
-1172 -75 1178 0
-1178 1173 1172 0
-1178 1173 75 0
-1174 1179 0
-1173 -75 1179 0
-1179 1174 1173 0
-1179 1174 75 0
-1175 1180 0
-1174 -75 1180 0
-1180 1175 1174 0
-1180 1175 75 0
-1175 -75 1181 0
-1181 1175 0
-1181 75 0
-1176 1182 0
-89 1182 0
-1182 1176 89 0
-1177 1183 0
-1176 -89 1183 0
-1183 1177 1176 0
-1183 1177 89 0
-1178 1184 0
-1177 -89 1184 0
-1184 1178 1177 0
-1184 1178 89 0
-1179 1185 0
-1178 -89 1185 0
-1185 1179 1178 0
-1185 1179 89 0
-1180 1186 0
-1179 -89 1186 0
-1186 1180 1179 0
-1186 1180 89 0
-1181 1187 0
-1180 -89 1187 0
-1187 1181 1180 0
-1187 1181 89 0
-1182 1188 0
-103 1188 0
-1188 1182 103 0
-1183 1189 0
-1182 -103 1189 0
-1189 1183 1182 0
-1189 1183 103 0
-1184 1190 0
-1183 -103 1190 0
-1190 1184 1183 0
-1190 1184 103 0
-1185 1191 0
-1184 -103 1191 0
-1191 1185 1184 0
-1191 1185 103 0
-1186 1192 0
-1185 -103 1192 0
-1192 1186 1185 0
-1192 1186 103 0
-1187 1193 0
-1186 -103 1193 0
-1193 1187 1186 0
-1193 1187 103 0
-1188 1194 0
-117 1194 0
-1194 1188 117 0
-1189 1195 0
-1188 -117 1195 0
-1195 1189 1188 0
-1195 1189 117 0
-1190 1196 0
-1189 -117 1196 0
-1196 1190 1189 0
-1196 1190 117 0
-1191 1197 0
-1190 -117 1197 0
-1197 1191 1190 0
-1197 1191 117 0
-1192 1198 0
-1191 -117 1198 0
-1198 1192 1191 0
-1198 1192 117 0
-1193 1199 0
-1192 -117 1199 0
-1199 1193 1192 0
-1199 1193 117 0
-1194 1200 0
-131 1200 0
-1200 1194 131 0
-1195 1201 0
-1194 -131 1201 0
-1201 1195 1194 0
-1201 1195 131 0
-1196 1202 0
-1195 -131 1202 0
-1202 1196 1195 0
-1202 1196 131 0
-1197 1203 0
-1196 -131 1203 0
-1203 1197 1196 0
-1203 1197 131 0
-1198 1204 0
-1197 -131 1204 0
-1204 1198 1197 0
-1204 1198 131 0
-1199 1205 0
-1198 -131 1205 0
-1205 1199 1198 0
-1205 1199 131 0
1204 0
-1205 0
-6 1206 0
-1206 6 0
-1206 1207 0
-20 1207 0
-1207 1206 20 0
-1206 -20 1208 0
-1208 1206 0
-1208 20 0
-1207 1209 0
-34 1209 0
-1209 1207 34 0
-1208 1210 0
-1207 -34 1210 0
-1210 1208 1207 0
-1210 1208 34 0
-1208 -34 1211 0
-1211 1208 0
-1211 34 0
-1209 1212 0
-48 1212 0
-1212 1209 48 0
-1210 1213 0
-1209 -48 1213 0
-1213 1210 1209 0
-1213 1210 48 0
-1211 1214 0
-1210 -48 1214 0
-1214 1211 1210 0
-1214 1211 48 0
-1211 -48 1215 0
-1215 1211 0
-1215 48 0
-1212 1216 0
-62 1216 0
-1216 1212 62 0
-1213 1217 0
-1212 -62 1217 0
-1217 1213 1212 0
-1217 1213 62 0
-1214 1218 0
-1213 -62 1218 0
-1218 1214 1213 0
-1218 1214 62 0
-1215 1219 0
-1214 -62 1219 0
-1219 1215 1214 0
-1219 1215 62 0
-1215 -62 1220 0
-1220 1215 0
-1220 62 0
-1216 1221 0
-76 1221 0
-1221 1216 76 0
-1217 1222 0
-1216 -76 1222 0
-1222 1217 1216 0
-1222 1217 76 0
-1218 1223 0
-1217 -76 1223 0
-1223 1218 1217 0
-1223 1218 76 0
-1219 1224 0
-1218 -76 1224 0
-1224 1219 1218 0
-1224 1219 76 0
-1220 1225 0
-1219 -76 1225 0
-1225 1220 1219 0
-1225 1220 76 0
-1220 -76 1226 0
-1226 1220 0
-1226 76 0
-1221 1227 0
-90 1227 0
-1227 1221 90 0
-1222 1228 0
-1221 -90 1228 0
-1228 1222 1221 0
-1228 1222 90 0
-1223 1229 0
-1222 -90 1229 0
-1229 1223 1222 0
-1229 1223 90 0
-1224 1230 0
-1223 -90 1230 0
-1230 1224 1223 0
-1230 1224 90 0
-1225 1231 0
-1224 -90 1231 0
-1231 1225 1224 0
-1231 1225 90 0
-1226 1232 0
-1225 -90 1232 0
-1232 1226 1225 0
-1232 1226 90 0
-1227 1233 0
-104 1233 0
-1233 1227 104 0
-1228 1234 0
-1227 -104 1234 0
-1234 1228 1227 0
-1234 1228 104 0
-1229 1235 0
-1228 -104 1235 0
-1235 1229 1228 0
-1235 1229 104 0
-1230 1236 0
-1229 -104 1236 0
-1236 1230 1229 0
-1236 1230 104 0
-1231 1237 0
-1230 -104 1237 0
-1237 1231 1230 0
-1237 1231 104 0
-1232 1238 0
-1231 -104 1238 0
-1238 1232 1231 0
-1238 1232 104 0
-1233 1239 0
-118 1239 0
-1239 1233 118 0
-1234 1240 0
-1233 -118 1240 0
-1240 1234 1233 0
-1240 1234 118 0
-1235 1241 0
-1234 -118 1241 0
-1241 1235 1234 0
-1241 1235 118 0
-1236 1242 0
-1235 -118 1242 0
-1242 1236 1235 0
-1242 1236 118 0
-1237 1243 0
-1236 -118 1243 0
-1243 1237 1236 0
-1243 1237 118 0
-1238 1244 0
-1237 -118 1244 0
-1244 1238 1237 0
-1244 1238 118 0
-1239 1245 0
-132 1245 0
-1245 1239 132 0
-1240 1246 0
-1239 -132 1246 0
-1246 1240 1239 0
-1246 1240 132 0
-1241 1247 0
-1240 -132 1247 0
-1247 1241 1240 0
-1247 1241 132 0
-1242 1248 0
-1241 -132 1248 0
-1248 1242 1241 0
-1248 1242 132 0
-1243 1249 0
-1242 -132 1249 0
-1249 1243 1242 0
-1249 1243 132 0
-1244 1250 0
-1243 -132 1250 0
-1250 1244 1243 0
-1250 1244 132 0
1249 0
-1250 0
-7 1251 0
-1251 7 0
-1251 1252 0
-21 1252 0
-1252 1251 21 0
-1251 -21 1253 0
-1253 1251 0
-1253 21 0
-1252 1254 0
-35 1254 0
-1254 1252 35 0
-1253 1255 0
-1252 -35 1255 0
-1255 1253 1252 0
-1255 1253 35 0
-1253 -35 1256 0
-1256 1253 0
-1256 35 0
-1254 1257 0
-49 1257 0
-1257 1254 49 0
-1255 1258 0
-1254 -49 1258 0
-1258 1255 1254 0
-1258 1255 49 0
-1256 1259 0
-1255 -49 1259 0
-1259 1256 1255 0
-1259 1256 49 0
-1256 -49 1260 0
-1260 1256 0
-1260 49 0
-1257 1261 0
-63 1261 0
-1261 1257 63 0
-1258 1262 0
-1257 -63 1262 0
-1262 1258 1257 0
-1262 1258 63 0
-1259 1263 0
-1258 -63 1263 0
-1263 1259 1258 0
-1263 1259 63 0
-1260 1264 0
-1259 -63 1264 0
-1264 1260 1259 0
-1264 1260 63 0
-1260 -63 1265 0
-1265 1260 0
-1265 63 0
-1261 1266 0
-77 1266 0
-1266 1261 77 0
-1262 1267 0
-1261 -77 1267 0
-1267 1262 1261 0
-1267 1262 77 0
-1263 1268 0
-1262 -77 1268 0
-1268 1263 1262 0
-1268 1263 77 0
-1264 1269 0
-1263 -77 1269 0
-1269 1264 1263 0
-1269 1264 77 0
-1265 1270 0
-1264 -77 1270 0
-1270 1265 1264 0
-1270 1265 77 0
-1265 -77 1271 0
-1271 1265 0
-1271 77 0
-1266 1272 0
-91 1272 0
-1272 1266 91 0
-1267 1273 0
-1266 -91 1273 0
-1273 1267 1266 0
-1273 1267 91 0
-1268 1274 0
-1267 -91 1274 0
-1274 1268 1267 0
-1274 1268 91 0
-1269 1275 0
-1268 -91 1275 0
-1275 1269 1268 0
-1275 1269 91 0
-1270 1276 0
-1269 -91 1276 0
-1276 1270 1269 0
-1276 1270 91 0
-1271 1277 0
-1270 -91 1277 0
-1277 1271 1270 0
-1277 1271 91 0
-1272 1278 0
-105 1278 0
-1278 1272 105 0
-1273 1279 0
-1272 -105 1279 0
-1279 1273 1272 0
-1279 1273 105 0
-1274 1280 0
-1273 -105 1280 0
-1280 1274 1273 0
-1280 1274 105 0
-1275 1281 0
-1274 -105 1281 0
-1281 1275 1274 0
-1281 1275 105 0
-1276 1282 0
-1275 -105 1282 0
-1282 1276 1275 0
-1282 1276 105 0
-1277 1283 0
-1276 -105 1283 0
-1283 1277 1276 0
-1283 1277 105 0
-1278 1284 0
-119 1284 0
-1284 1278 119 0
-1279 1285 0
-1278 -119 1285 0
-1285 1279 1278 0
-1285 1279 119 0
-1280 1286 0
-1279 -119 1286 0
-1286 1280 1279 0
-1286 1280 119 0
-1281 1287 0
-1280 -119 1287 0
-1287 1281 1280 0
-1287 1281 119 0
-1282 1288 0
-1281 -119 1288 0
-1288 1282 1281 0
-1288 1282 119 0
-1283 1289 0
-1282 -119 1289 0
-1289 1283 1282 0
-1289 1283 119 0
-1284 1290 0
-133 1290 0
-1290 1284 133 0
-1285 1291 0
-1284 -133 1291 0
-1291 1285 1284 0
-1291 1285 133 0
-1286 1292 0
-1285 -133 1292 0
-1292 1286 1285 0
-1292 1286 133 0
-1287 1293 0
-1286 -133 1293 0
-1293 1287 1286 0
-1293 1287 133 0
-1288 1294 0
-1287 -133 1294 0
-1294 1288 1287 0
-1294 1288 133 0
-1289 1295 0
-1288 -133 1295 0
-1295 1289 1288 0
-1295 1289 133 0
1294 0
-1295 0
-8 1296 0
-1296 8 0
-1296 1297 0
-22 1297 0
-1297 1296 22 0
-1296 -22 1298 0
-1298 1296 0
-1298 22 0
-1297 1299 0
-36 1299 0
-1299 1297 36 0
-1298 1300 0
-1297 -36 1300 0
-1300 1298 1297 0
-1300 1298 36 0
-1298 -36 1301 0
-1301 1298 0
-1301 36 0
-1299 1302 0
-50 1302 0
-1302 1299 50 0
-1300 1303 0
-1299 -50 1303 0
-1303 1300 1299 0
-1303 1300 50 0
-1301 1304 0
-1300 -50 1304 0
-1304 1301 1300 0
-1304 1301 50 0
-1301 -50 1305 0
-1305 1301 0
-1305 50 0
-1302 1306 0
-64 1306 0
-1306 1302 64 0
-1303 1307 0
-1302 -64 1307 0
-1307 1303 1302 0
-1307 1303 64 0
-1304 1308 0
-1303 -64 1308 0
-1308 1304 1303 0
-1308 1304 64 0
-1305 1309 0
-1304 -64 1309 0
-1309 1305 1304 0
-1309 1305 64 0
-1305 -64 1310 0
-1310 1305 0
-1310 64 0
-1306 1311 0
-78 1311 0
-1311 1306 78 0
-1307 1312 0
-1306 -78 1312 0
-1312 1307 1306 0
-1312 1307 78 0
-1308 1313 0
-1307 -78 1313 0
-1313 1308 1307 0
-1313 1308 78 0
-1309 1314 0
-1308 -78 1314 0
-1314 1309 1308 0
-1314 1309 78 0
-1310 1315 0
-1309 -78 1315 0
-1315 1310 1309 0
-1315 1310 78 0
-1310 -78 1316 0
-1316 1310 0
-1316 78 0
-1311 1317 0
-92 1317 0
-1317 1311 92 0
-1312 1318 0
-1311 -92 1318 0
-1318 1312 1311 0
-1318 1312 92 0
-1313 1319 0
-1312 -92 1319 0
-1319 1313 1312 0
-1319 1313 92 0
-1314 1320 0
-1313 -92 1320 0
-1320 1314 1313 0
-1320 1314 92 0
-1315 1321 0
-1314 -92 1321 0
-1321 1315 1314 0
-1321 1315 92 0
-1316 1322 0
-1315 -92 1322 0
-1322 1316 1315 0
-1322 1316 92 0
-1317 1323 0
-106 1323 0
-1323 1317 106 0
-1318 1324 0
-1317 -106 1324 0
-1324 1318 1317 0
-1324 1318 106 0
-1319 1325 0
-1318 -106 1325 0
-1325 1319 1318 0
-1325 1319 106 0
-1320 1326 0
-1319 -106 1326 0
-1326 1320 1319 0
-1326 1320 106 0
-1321 1327 0
-1320 -106 1327 0
-1327 1321 1320 0
-1327 1321 106 0
-1322 1328 0
-1321 -106 1328 0
-1328 1322 1321 0
-1328 1322 106 0
-1323 1329 0
-120 1329 0
-1329 1323 120 0
-1324 1330 0
-1323 -120 1330 0
-1330 1324 1323 0
-1330 1324 120 0
-1325 1331 0
-1324 -120 1331 0
-1331 1325 1324 0
-1331 1325 120 0
-1326 1332 0
-1325 -120 1332 0
-1332 1326 1325 0
-1332 1326 120 0
-1327 1333 0
-1326 -120 1333 0
-1333 1327 1326 0
-1333 1327 120 0
-1328 1334 0
-1327 -120 1334 0
-1334 1328 1327 0
-1334 1328 120 0
-1329 1335 0
-134 1335 0
-1335 1329 134 0
-1330 1336 0
-1329 -134 1336 0
-1336 1330 1329 0
-1336 1330 134 0
-1331 1337 0
-1330 -134 1337 0
-1337 1331 1330 0
-1337 1331 134 0
-1332 1338 0
-1331 -134 1338 0
-1338 1332 1331 0
-1338 1332 134 0
-1333 1339 0
-1332 -134 1339 0
-1339 1333 1332 0
-1339 1333 134 0
-1334 1340 0
-1333 -134 1340 0
-1340 1334 1333 0
-1340 1334 134 0
1339 0
-1340 0
-9 1341 0
-1341 9 0
-1341 1342 0
-23 1342 0
-1342 1341 23 0
-1341 -23 1343 0
-1343 1341 0
-1343 23 0
-1342 1344 0
-37 1344 0
-1344 1342 37 0
-1343 1345 0
-1342 -37 1345 0
-1345 1343 1342 0
-1345 1343 37 0
-1343 -37 1346 0
-1346 1343 0
-1346 37 0
-1344 1347 0
-51 1347 0
-1347 1344 51 0
-1345 1348 0
-1344 -51 1348 0
-1348 1345 1344 0
-1348 1345 51 0
-1346 1349 0
-1345 -51 1349 0
-1349 1346 1345 0
-1349 1346 51 0
-1346 -51 1350 0
-1350 1346 0
-1350 51 0
-1347 1351 0
-65 1351 0
-1351 1347 65 0
-1348 1352 0
-1347 -65 1352 0
-1352 1348 1347 0
-1352 1348 65 0
-1349 1353 0
-1348 -65 1353 0
-1353 1349 1348 0
-1353 1349 65 0
-1350 1354 0
-1349 -65 1354 0
-1354 1350 1349 0
-1354 1350 65 0
-1350 -65 1355 0
-1355 1350 0
-1355 65 0
-1351 1356 0
-79 1356 0
-1356 1351 79 0
-1352 1357 0
-1351 -79 1357 0
-1357 1352 1351 0
-1357 1352 79 0
-1353 1358 0
-1352 -79 1358 0
-1358 1353 1352 0
-1358 1353 79 0
-1354 1359 0
-1353 -79 1359 0
-1359 1354 1353 0
-1359 1354 79 0
-1355 1360 0
-1354 -79 1360 0
-1360 1355 1354 0
-1360 1355 79 0
-1355 -79 1361 0
-1361 1355 0
-1361 79 0
-1356 1362 0
-93 1362 0
-1362 1356 93 0
-1357 1363 0
-1356 -93 1363 0
-1363 1357 1356 0
-1363 1357 93 0
-1358 1364 0
-1357 -93 1364 0
-1364 1358 1357 0
-1364 1358 93 0
-1359 1365 0
-1358 -93 1365 0
-1365 1359 1358 0
-1365 1359 93 0
-1360 1366 0
-1359 -93 1366 0
-1366 1360 1359 0
-1366 1360 93 0
-1361 1367 0
-1360 -93 1367 0
-1367 1361 1360 0
-1367 1361 93 0
-1362 1368 0
-107 1368 0
-1368 1362 107 0
-1363 1369 0
-1362 -107 1369 0
-1369 1363 1362 0
-1369 1363 107 0
-1364 1370 0
-1363 -107 1370 0
-1370 1364 1363 0
-1370 1364 107 0
-1365 1371 0
-1364 -107 1371 0
-1371 1365 1364 0
-1371 1365 107 0
-1366 1372 0
-1365 -107 1372 0
-1372 1366 1365 0
-1372 1366 107 0
-1367 1373 0
-1366 -107 1373 0
-1373 1367 1366 0
-1373 1367 107 0
-1368 1374 0
-121 1374 0
-1374 1368 121 0
-1369 1375 0
-1368 -121 1375 0
-1375 1369 1368 0
-1375 1369 121 0
-1370 1376 0
-1369 -121 1376 0
-1376 1370 1369 0
-1376 1370 121 0
-1371 1377 0
-1370 -121 1377 0
-1377 1371 1370 0
-1377 1371 121 0
-1372 1378 0
-1371 -121 1378 0
-1378 1372 1371 0
-1378 1372 121 0
-1373 1379 0
-1372 -121 1379 0
-1379 1373 1372 0
-1379 1373 121 0
-1374 1380 0
-135 1380 0
-1380 1374 135 0
-1375 1381 0
-1374 -135 1381 0
-1381 1375 1374 0
-1381 1375 135 0
-1376 1382 0
-1375 -135 1382 0
-1382 1376 1375 0
-1382 1376 135 0
-1377 1383 0
-1376 -135 1383 0
-1383 1377 1376 0
-1383 1377 135 0
-1378 1384 0
-1377 -135 1384 0
-1384 1378 1377 0
-1384 1378 135 0
-1379 1385 0
-1378 -135 1385 0
-1385 1379 1378 0
-1385 1379 135 0
1384 0
-1385 0
-10 1386 0
-1386 10 0
-1386 1387 0
-24 1387 0
-1387 1386 24 0
-1386 -24 1388 0
-1388 1386 0
-1388 24 0
-1387 1389 0
-38 1389 0
-1389 1387 38 0
-1388 1390 0
-1387 -38 1390 0
-1390 1388 1387 0
-1390 1388 38 0
-1388 -38 1391 0
-1391 1388 0
-1391 38 0
-1389 1392 0
-52 1392 0
-1392 1389 52 0
-1390 1393 0
-1389 -52 1393 0
-1393 1390 1389 0
-1393 1390 52 0
-1391 1394 0
-1390 -52 1394 0
-1394 1391 1390 0
-1394 1391 52 0
-1391 -52 1395 0
-1395 1391 0
-1395 52 0
-1392 1396 0
-66 1396 0
-1396 1392 66 0
-1393 1397 0
-1392 -66 1397 0
-1397 1393 1392 0
-1397 1393 66 0
-1394 1398 0
-1393 -66 1398 0
-1398 1394 1393 0
-1398 1394 66 0
-1395 1399 0
-1394 -66 1399 0
-1399 1395 1394 0
-1399 1395 66 0
-1395 -66 1400 0
-1400 1395 0
-1400 66 0
-1396 1401 0
-80 1401 0
-1401 1396 80 0
-1397 1402 0
-1396 -80 1402 0
-1402 1397 1396 0
-1402 1397 80 0
-1398 1403 0
-1397 -80 1403 0
-1403 1398 1397 0
-1403 1398 80 0
-1399 1404 0
-1398 -80 1404 0
-1404 1399 1398 0
-1404 1399 80 0
-1400 1405 0
-1399 -80 1405 0
-1405 1400 1399 0
-1405 1400 80 0
-1400 -80 1406 0
-1406 1400 0
-1406 80 0
-1401 1407 0
-94 1407 0
-1407 1401 94 0
-1402 1408 0
-1401 -94 1408 0
-1408 1402 1401 0
-1408 1402 94 0
-1403 1409 0
-1402 -94 1409 0
-1409 1403 1402 0
-1409 1403 94 0
-1404 1410 0
-1403 -94 1410 0
-1410 1404 1403 0
-1410 1404 94 0
-1405 1411 0
-1404 -94 1411 0
-1411 1405 1404 0
-1411 1405 94 0
-1406 1412 0
-1405 -94 1412 0
-1412 1406 1405 0
-1412 1406 94 0
-1407 1413 0
-108 1413 0
-1413 1407 108 0
-1408 1414 0
-1407 -108 1414 0
-1414 1408 1407 0
-1414 1408 108 0
-1409 1415 0
-1408 -108 1415 0
-1415 1409 1408 0
-1415 1409 108 0
-1410 1416 0
-1409 -108 1416 0
-1416 1410 1409 0
-1416 1410 108 0
-1411 1417 0
-1410 -108 1417 0
-1417 1411 1410 0
-1417 1411 108 0
-1412 1418 0
-1411 -108 1418 0
-1418 1412 1411 0
-1418 1412 108 0
-1413 1419 0
-122 1419 0
-1419 1413 122 0
-1414 1420 0
-1413 -122 1420 0
-1420 1414 1413 0
-1420 1414 122 0
-1415 1421 0
-1414 -122 1421 0
-1421 1415 1414 0
-1421 1415 122 0
-1416 1422 0
-1415 -122 1422 0
-1422 1416 1415 0
-1422 1416 122 0
-1417 1423 0
-1416 -122 1423 0
-1423 1417 1416 0
-1423 1417 122 0
-1418 1424 0
-1417 -122 1424 0
-1424 1418 1417 0
-1424 1418 122 0
-1419 1425 0
-136 1425 0
-1425 1419 136 0
-1420 1426 0
-1419 -136 1426 0
-1426 1420 1419 0
-1426 1420 136 0
-1421 1427 0
-1420 -136 1427 0
-1427 1421 1420 0
-1427 1421 136 0
-1422 1428 0
-1421 -136 1428 0
-1428 1422 1421 0
-1428 1422 136 0
-1423 1429 0
-1422 -136 1429 0
-1429 1423 1422 0
-1429 1423 136 0
-1424 1430 0
-1423 -136 1430 0
-1430 1424 1423 0
-1430 1424 136 0
1429 0
-1430 0
-11 1431 0
-1431 11 0
-1431 1432 0
-25 1432 0
-1432 1431 25 0
-1431 -25 1433 0
-1433 1431 0
-1433 25 0
-1432 1434 0
-39 1434 0
-1434 1432 39 0
-1433 1435 0
-1432 -39 1435 0
-1435 1433 1432 0
-1435 1433 39 0
-1433 -39 1436 0
-1436 1433 0
-1436 39 0
-1434 1437 0
-53 1437 0
-1437 1434 53 0
-1435 1438 0
-1434 -53 1438 0
-1438 1435 1434 0
-1438 1435 53 0
-1436 1439 0
-1435 -53 1439 0
-1439 1436 1435 0
-1439 1436 53 0
-1436 -53 1440 0
-1440 1436 0
-1440 53 0
-1437 1441 0
-67 1441 0
-1441 1437 67 0
-1438 1442 0
-1437 -67 1442 0
-1442 1438 1437 0
-1442 1438 67 0
-1439 1443 0
-1438 -67 1443 0
-1443 1439 1438 0
-1443 1439 67 0
-1440 1444 0
-1439 -67 1444 0
-1444 1440 1439 0
-1444 1440 67 0
-1440 -67 1445 0
-1445 1440 0
-1445 67 0
-1441 1446 0
-81 1446 0
-1446 1441 81 0
-1442 1447 0
-1441 -81 1447 0
-1447 1442 1441 0
-1447 1442 81 0
-1443 1448 0
-1442 -81 1448 0
-1448 1443 1442 0
-1448 1443 81 0
-1444 1449 0
-1443 -81 1449 0
-1449 1444 1443 0
-1449 1444 81 0
-1445 1450 0
-1444 -81 1450 0
-1450 1445 1444 0
-1450 1445 81 0
-1445 -81 1451 0
-1451 1445 0
-1451 81 0
-1446 1452 0
-95 1452 0
-1452 1446 95 0
-1447 1453 0
-1446 -95 1453 0
-1453 1447 1446 0
-1453 1447 95 0
-1448 1454 0
-1447 -95 1454 0
-1454 1448 1447 0
-1454 1448 95 0
-1449 1455 0
-1448 -95 1455 0
-1455 1449 1448 0
-1455 1449 95 0
-1450 1456 0
-1449 -95 1456 0
-1456 1450 1449 0
-1456 1450 95 0
-1451 1457 0
-1450 -95 1457 0
-1457 1451 1450 0
-1457 1451 95 0
-1452 1458 0
-109 1458 0
-1458 1452 109 0
-1453 1459 0
-1452 -109 1459 0
-1459 1453 1452 0
-1459 1453 109 0
-1454 1460 0
-1453 -109 1460 0
-1460 1454 1453 0
-1460 1454 109 0
-1455 1461 0
-1454 -109 1461 0
-1461 1455 1454 0
-1461 1455 109 0
-1456 1462 0
-1455 -109 1462 0
-1462 1456 1455 0
-1462 1456 109 0
-1457 1463 0
-1456 -109 1463 0
-1463 1457 1456 0
-1463 1457 109 0
-1458 1464 0
-123 1464 0
-1464 1458 123 0
-1459 1465 0
-1458 -123 1465 0
-1465 1459 1458 0
-1465 1459 123 0
-1460 1466 0
-1459 -123 1466 0
-1466 1460 1459 0
-1466 1460 123 0
-1461 1467 0
-1460 -123 1467 0
-1467 1461 1460 0
-1467 1461 123 0
-1462 1468 0
-1461 -123 1468 0
-1468 1462 1461 0
-1468 1462 123 0
-1463 1469 0
-1462 -123 1469 0
-1469 1463 1462 0
-1469 1463 123 0
-1464 1470 0
-137 1470 0
-1470 1464 137 0
-1465 1471 0
-1464 -137 1471 0
-1471 1465 1464 0
-1471 1465 137 0
-1466 1472 0
-1465 -137 1472 0
-1472 1466 1465 0
-1472 1466 137 0
-1467 1473 0
-1466 -137 1473 0
-1473 1467 1466 0
-1473 1467 137 0
-1468 1474 0
-1467 -137 1474 0
-1474 1468 1467 0
-1474 1468 137 0
-1469 1475 0
-1468 -137 1475 0
-1475 1469 1468 0
-1475 1469 137 0
1474 0
-1475 0
-12 1476 0
-1476 12 0
-1476 1477 0
-26 1477 0
-1477 1476 26 0
-1476 -26 1478 0
-1478 1476 0
-1478 26 0
-1477 1479 0
-40 1479 0
-1479 1477 40 0
-1478 1480 0
-1477 -40 1480 0
-1480 1478 1477 0
-1480 1478 40 0
-1478 -40 1481 0
-1481 1478 0
-1481 40 0
-1479 1482 0
-54 1482 0
-1482 1479 54 0
-1480 1483 0
-1479 -54 1483 0
-1483 1480 1479 0
-1483 1480 54 0
-1481 1484 0
-1480 -54 1484 0
-1484 1481 1480 0
-1484 1481 54 0
-1481 -54 1485 0
-1485 1481 0
-1485 54 0
-1482 1486 0
-68 1486 0
-1486 1482 68 0
-1483 1487 0
-1482 -68 1487 0
-1487 1483 1482 0
-1487 1483 68 0
-1484 1488 0
-1483 -68 1488 0
-1488 1484 1483 0
-1488 1484 68 0
-1485 1489 0
-1484 -68 1489 0
-1489 1485 1484 0
-1489 1485 68 0
-1485 -68 1490 0
-1490 1485 0
-1490 68 0
-1486 1491 0
-82 1491 0
-1491 1486 82 0
-1487 1492 0
-1486 -82 1492 0
-1492 1487 1486 0
-1492 1487 82 0
-1488 1493 0
-1487 -82 1493 0
-1493 1488 1487 0
-1493 1488 82 0
-1489 1494 0
-1488 -82 1494 0
-1494 1489 1488 0
-1494 1489 82 0
-1490 1495 0
-1489 -82 1495 0
-1495 1490 1489 0
-1495 1490 82 0
-1490 -82 1496 0
-1496 1490 0
-1496 82 0
-1491 1497 0
-96 1497 0
-1497 1491 96 0
-1492 1498 0
-1491 -96 1498 0
-1498 1492 1491 0
-1498 1492 96 0
-1493 1499 0
-1492 -96 1499 0
-1499 1493 1492 0
-1499 1493 96 0
-1494 1500 0
-1493 -96 1500 0
-1500 1494 1493 0
-1500 1494 96 0
-1495 1501 0
-1494 -96 1501 0
-1501 1495 1494 0
-1501 1495 96 0
-1496 1502 0
-1495 -96 1502 0
-1502 1496 1495 0
-1502 1496 96 0
-1497 1503 0
-110 1503 0
-1503 1497 110 0
-1498 1504 0
-1497 -110 1504 0
-1504 1498 1497 0
-1504 1498 110 0
-1499 1505 0
-1498 -110 1505 0
-1505 1499 1498 0
-1505 1499 110 0
-1500 1506 0
-1499 -110 1506 0
-1506 1500 1499 0
-1506 1500 110 0
-1501 1507 0
-1500 -110 1507 0
-1507 1501 1500 0
-1507 1501 110 0
-1502 1508 0
-1501 -110 1508 0
-1508 1502 1501 0
-1508 1502 110 0
-1503 1509 0
-124 1509 0
-1509 1503 124 0
-1504 1510 0
-1503 -124 1510 0
-1510 1504 1503 0
-1510 1504 124 0
-1505 1511 0
-1504 -124 1511 0
-1511 1505 1504 0
-1511 1505 124 0
-1506 1512 0
-1505 -124 1512 0
-1512 1506 1505 0
-1512 1506 124 0
-1507 1513 0
-1506 -124 1513 0
-1513 1507 1506 0
-1513 1507 124 0
-1508 1514 0
-1507 -124 1514 0
-1514 1508 1507 0
-1514 1508 124 0
-1509 1515 0
-138 1515 0
-1515 1509 138 0
-1510 1516 0
-1509 -138 1516 0
-1516 1510 1509 0
-1516 1510 138 0
-1511 1517 0
-1510 -138 1517 0
-1517 1511 1510 0
-1517 1511 138 0
-1512 1518 0
-1511 -138 1518 0
-1518 1512 1511 0
-1518 1512 138 0
-1513 1519 0
-1512 -138 1519 0
-1519 1513 1512 0
-1519 1513 138 0
-1514 1520 0
-1513 -138 1520 0
-1520 1514 1513 0
-1520 1514 138 0
1519 0
-1520 0
-13 1521 0
-1521 13 0
-1521 1522 0
-27 1522 0
-1522 1521 27 0
-1521 -27 1523 0
-1523 1521 0
-1523 27 0
-1522 1524 0
-41 1524 0
-1524 1522 41 0
-1523 1525 0
-1522 -41 1525 0
-1525 1523 1522 0
-1525 1523 41 0
-1523 -41 1526 0
-1526 1523 0
-1526 41 0
-1524 1527 0
-55 1527 0
-1527 1524 55 0
-1525 1528 0
-1524 -55 1528 0
-1528 1525 1524 0
-1528 1525 55 0
-1526 1529 0
-1525 -55 1529 0
-1529 1526 1525 0
-1529 1526 55 0
-1526 -55 1530 0
-1530 1526 0
-1530 55 0
-1527 1531 0
-69 1531 0
-1531 1527 69 0
-1528 1532 0
-1527 -69 1532 0
-1532 1528 1527 0
-1532 1528 69 0
-1529 1533 0
-1528 -69 1533 0
-1533 1529 1528 0
-1533 1529 69 0
-1530 1534 0
-1529 -69 1534 0
-1534 1530 1529 0
-1534 1530 69 0
-1530 -69 1535 0
-1535 1530 0
-1535 69 0
-1531 1536 0
-83 1536 0
-1536 1531 83 0
-1532 1537 0
-1531 -83 1537 0
-1537 1532 1531 0
-1537 1532 83 0
-1533 1538 0
-1532 -83 1538 0
-1538 1533 1532 0
-1538 1533 83 0
-1534 1539 0
-1533 -83 1539 0
-1539 1534 1533 0
-1539 1534 83 0
-1535 1540 0
-1534 -83 1540 0
-1540 1535 1534 0
-1540 1535 83 0
-1535 -83 1541 0
-1541 1535 0
-1541 83 0
-1536 1542 0
-97 1542 0
-1542 1536 97 0
-1537 1543 0
-1536 -97 1543 0
-1543 1537 1536 0
-1543 1537 97 0
-1538 1544 0
-1537 -97 1544 0
-1544 1538 1537 0
-1544 1538 97 0
-1539 1545 0
-1538 -97 1545 0
-1545 1539 1538 0
-1545 1539 97 0
-1540 1546 0
-1539 -97 1546 0
-1546 1540 1539 0
-1546 1540 97 0
-1541 1547 0
-1540 -97 1547 0
-1547 1541 1540 0
-1547 1541 97 0
-1542 1548 0
-111 1548 0
-1548 1542 111 0
-1543 1549 0
-1542 -111 1549 0
-1549 1543 1542 0
-1549 1543 111 0
-1544 1550 0
-1543 -111 1550 0
-1550 1544 1543 0
-1550 1544 111 0
-1545 1551 0
-1544 -111 1551 0
-1551 1545 1544 0
-1551 1545 111 0
-1546 1552 0
-1545 -111 1552 0
-1552 1546 1545 0
-1552 1546 111 0
-1547 1553 0
-1546 -111 1553 0
-1553 1547 1546 0
-1553 1547 111 0
-1548 1554 0
-125 1554 0
-1554 1548 125 0
-1549 1555 0
-1548 -125 1555 0
-1555 1549 1548 0
-1555 1549 125 0
-1550 1556 0
-1549 -125 1556 0
-1556 1550 1549 0
-1556 1550 125 0
-1551 1557 0
-1550 -125 1557 0
-1557 1551 1550 0
-1557 1551 125 0
-1552 1558 0
-1551 -125 1558 0
-1558 1552 1551 0
-1558 1552 125 0
-1553 1559 0
-1552 -125 1559 0
-1559 1553 1552 0
-1559 1553 125 0
-1554 1560 0
-139 1560 0
-1560 1554 139 0
-1555 1561 0
-1554 -139 1561 0
-1561 1555 1554 0
-1561 1555 139 0
-1556 1562 0
-1555 -139 1562 0
-1562 1556 1555 0
-1562 1556 139 0
-1557 1563 0
-1556 -139 1563 0
-1563 1557 1556 0
-1563 1557 139 0
-1558 1564 0
-1557 -139 1564 0
-1564 1558 1557 0
-1564 1558 139 0
-1559 1565 0
-1558 -139 1565 0
-1565 1559 1558 0
-1565 1559 139 0
1564 0
-1565 0
-14 1566 0
-1566 14 0
-1566 1567 0
-28 1567 0
-1567 1566 28 0
-1566 -28 1568 0
-1568 1566 0
-1568 28 0
-1567 1569 0
-42 1569 0
-1569 1567 42 0
-1568 1570 0
-1567 -42 1570 0
-1570 1568 1567 0
-1570 1568 42 0
-1568 -42 1571 0
-1571 1568 0
-1571 42 0
-1569 1572 0
-56 1572 0
-1572 1569 56 0
-1570 1573 0
-1569 -56 1573 0
-1573 1570 1569 0
-1573 1570 56 0
-1571 1574 0
-1570 -56 1574 0
-1574 1571 1570 0
-1574 1571 56 0
-1571 -56 1575 0
-1575 1571 0
-1575 56 0
-1572 1576 0
-70 1576 0
-1576 1572 70 0
-1573 1577 0
-1572 -70 1577 0
-1577 1573 1572 0
-1577 1573 70 0
-1574 1578 0
-1573 -70 1578 0
-1578 1574 1573 0
-1578 1574 70 0
-1575 1579 0
-1574 -70 1579 0
-1579 1575 1574 0
-1579 1575 70 0
-1575 -70 1580 0
-1580 1575 0
-1580 70 0
-1576 1581 0
-84 1581 0
-1581 1576 84 0
-1577 1582 0
-1576 -84 1582 0
-1582 1577 1576 0
-1582 1577 84 0
-1578 1583 0
-1577 -84 1583 0
-1583 1578 1577 0
-1583 1578 84 0
-1579 1584 0
-1578 -84 1584 0
-1584 1579 1578 0
-1584 1579 84 0
-1580 1585 0
-1579 -84 1585 0
-1585 1580 1579 0
-1585 1580 84 0
-1580 -84 1586 0
-1586 1580 0
-1586 84 0
-1581 1587 0
-98 1587 0
-1587 1581 98 0
-1582 1588 0
-1581 -98 1588 0
-1588 1582 1581 0
-1588 1582 98 0
-1583 1589 0
-1582 -98 1589 0
-1589 1583 1582 0
-1589 1583 98 0
-1584 1590 0
-1583 -98 1590 0
-1590 1584 1583 0
-1590 1584 98 0
-1585 1591 0
-1584 -98 1591 0
-1591 1585 1584 0
-1591 1585 98 0
-1586 1592 0
-1585 -98 1592 0
-1592 1586 1585 0
-1592 1586 98 0
-1587 1593 0
-112 1593 0
-1593 1587 112 0
-1588 1594 0
-1587 -112 1594 0
-1594 1588 1587 0
-1594 1588 112 0
-1589 1595 0
-1588 -112 1595 0
-1595 1589 1588 0
-1595 1589 112 0
-1590 1596 0
-1589 -112 1596 0
-1596 1590 1589 0
-1596 1590 112 0
-1591 1597 0
-1590 -112 1597 0
-1597 1591 1590 0
-1597 1591 112 0
-1592 1598 0
-1591 -112 1598 0
-1598 1592 1591 0
-1598 1592 112 0
-1593 1599 0
-126 1599 0
-1599 1593 126 0
-1594 1600 0
-1593 -126 1600 0
-1600 1594 1593 0
-1600 1594 126 0
-1595 1601 0
-1594 -126 1601 0
-1601 1595 1594 0
-1601 1595 126 0
-1596 1602 0
-1595 -126 1602 0
-1602 1596 1595 0
-1602 1596 126 0
-1597 1603 0
-1596 -126 1603 0
-1603 1597 1596 0
-1603 1597 126 0
-1598 1604 0
-1597 -126 1604 0
-1604 1598 1597 0
-1604 1598 126 0
-1599 1605 0
-140 1605 0
-1605 1599 140 0
-1600 1606 0
-1599 -140 1606 0
-1606 1600 1599 0
-1606 1600 140 0
-1601 1607 0
-1600 -140 1607 0
-1607 1601 1600 0
-1607 1601 140 0
-1602 1608 0
-1601 -140 1608 0
-1608 1602 1601 0
-1608 1602 140 0
-1603 1609 0
-1602 -140 1609 0
-1609 1603 1602 0
-1609 1603 140 0
-1604 1610 0
-1603 -140 1610 0
-1610 1604 1603 0
-1610 1604 140 0
1609 0
-1610 0
-1611 1 0
-1611 15 0
1611 -1 -15 0
-1612 2 0
-1612 16 0
1612 -2 -16 0
-1613 3 0
-1613 17 0
1613 -3 -17 0
-1614 4 0
-1614 18 0
1614 -4 -18 0
-1615 5 0
-1615 19 0
1615 -5 -19 0
-1616 6 0
-1616 20 0
1616 -6 -20 0
-1617 7 0
-1617 21 0
1617 -7 -21 0
-1618 8 0
-1618 22 0
1618 -8 -22 0
-1619 9 0
-1619 23 0
1619 -9 -23 0
-1620 10 0
-1620 24 0
1620 -10 -24 0
-1621 11 0
-1621 25 0
1621 -11 -25 0
-1622 12 0
-1622 26 0
1622 -12 -26 0
-1623 13 0
-1623 27 0
1623 -13 -27 0
-1624 14 0
-1624 28 0
1624 -14 -28 0
-1611 1625 0
-1625 1611 0
-1625 1626 0
-1612 1626 0
-1626 1625 1612 0
-1625 -1612 1627 0
-1627 1625 0
-1627 1612 0
-1626 1628 0
-1613 1628 0
-1628 1626 1613 0
-1627 1629 0
-1626 -1613 1629 0
-1629 1627 1626 0
-1629 1627 1613 0
-1627 -1613 1630 0
-1630 1627 0
-1630 1613 0
-1628 1631 0
-1614 1631 0
-1631 1628 1614 0
-1629 1632 0
-1628 -1614 1632 0
-1632 1629 1628 0
-1632 1629 1614 0
-1630 1633 0
-1629 -1614 1633 0
-1633 1630 1629 0
-1633 1630 1614 0
-1631 1634 0
-1615 1634 0
-1634 1631 1615 0
-1632 1635 0
-1631 -1615 1635 0
-1635 1632 1631 0
-1635 1632 1615 0
-1633 1636 0
-1632 -1615 1636 0
-1636 1633 1632 0
-1636 1633 1615 0
-1634 1637 0
-1616 1637 0
-1637 1634 1616 0
-1635 1638 0
-1634 -1616 1638 0
-1638 1635 1634 0
-1638 1635 1616 0
-1636 1639 0
-1635 -1616 1639 0
-1639 1636 1635 0
-1639 1636 1616 0
-1637 1640 0
-1617 1640 0
-1640 1637 1617 0
-1638 1641 0
-1637 -1617 1641 0
-1641 1638 1637 0
-1641 1638 1617 0
-1639 1642 0
-1638 -1617 1642 0
-1642 1639 1638 0
-1642 1639 1617 0
-1640 1643 0
-1618 1643 0
-1643 1640 1618 0
-1641 1644 0
-1640 -1618 1644 0
-1644 1641 1640 0
-1644 1641 1618 0
-1642 1645 0
-1641 -1618 1645 0
-1645 1642 1641 0
-1645 1642 1618 0
-1643 1646 0
-1619 1646 0
-1646 1643 1619 0
-1644 1647 0
-1643 -1619 1647 0
-1647 1644 1643 0
-1647 1644 1619 0
-1645 1648 0
-1644 -1619 1648 0
-1648 1645 1644 0
-1648 1645 1619 0
-1646 1649 0
-1620 1649 0
-1649 1646 1620 0
-1647 1650 0
-1646 -1620 1650 0
-1650 1647 1646 0
-1650 1647 1620 0
-1648 1651 0
-1647 -1620 1651 0
-1651 1648 1647 0
-1651 1648 1620 0
-1649 1652 0
-1621 1652 0
-1652 1649 1621 0
-1650 1653 0
-1649 -1621 1653 0
-1653 1650 1649 0
-1653 1650 1621 0
-1651 1654 0
-1650 -1621 1654 0
-1654 1651 1650 0
-1654 1651 1621 0
-1652 1655 0
-1622 1655 0
-1655 1652 1622 0
-1653 1656 0
-1652 -1622 1656 0
-1656 1653 1652 0
-1656 1653 1622 0
-1654 1657 0
-1653 -1622 1657 0
-1657 1654 1653 0
-1657 1654 1622 0
-1655 1658 0
-1623 1658 0
-1658 1655 1623 0
-1656 1659 0
-1655 -1623 1659 0
-1659 1656 1655 0
-1659 1656 1623 0
-1657 1660 0
-1656 -1623 1660 0
-1660 1657 1656 0
-1660 1657 1623 0
-1658 1661 0
-1624 1661 0
-1661 1658 1624 0
-1659 1662 0
-1658 -1624 1662 0
-1662 1659 1658 0
-1662 1659 1624 0
-1660 1663 0
-1659 -1624 1663 0
-1663 1660 1659 0
-1663 1660 1624 0
1663 0
-1664 1 0
-1664 29 0
1664 -1 -29 0
-1665 2 0
-1665 30 0
1665 -2 -30 0
-1666 3 0
-1666 31 0
1666 -3 -31 0
-1667 4 0
-1667 32 0
1667 -4 -32 0
-1668 5 0
-1668 33 0
1668 -5 -33 0
-1669 6 0
-1669 34 0
1669 -6 -34 0
-1670 7 0
-1670 35 0
1670 -7 -35 0
-1671 8 0
-1671 36 0
1671 -8 -36 0
-1672 9 0
-1672 37 0
1672 -9 -37 0
-1673 10 0
-1673 38 0
1673 -10 -38 0
-1674 11 0
-1674 39 0
1674 -11 -39 0
-1675 12 0
-1675 40 0
1675 -12 -40 0
-1676 13 0
-1676 41 0
1676 -13 -41 0
-1677 14 0
-1677 42 0
1677 -14 -42 0
-1664 1678 0
-1678 1664 0
-1678 1679 0
-1665 1679 0
-1679 1678 1665 0
-1678 -1665 1680 0
-1680 1678 0
-1680 1665 0
-1679 1681 0
-1666 1681 0
-1681 1679 1666 0
-1680 1682 0
-1679 -1666 1682 0
-1682 1680 1679 0
-1682 1680 1666 0
-1680 -1666 1683 0
-1683 1680 0
-1683 1666 0
-1681 1684 0
-1667 1684 0
-1684 1681 1667 0
-1682 1685 0
-1681 -1667 1685 0
-1685 1682 1681 0
-1685 1682 1667 0
-1683 1686 0
-1682 -1667 1686 0
-1686 1683 1682 0
-1686 1683 1667 0
-1684 1687 0
-1668 1687 0
-1687 1684 1668 0
-1685 1688 0
-1684 -1668 1688 0
-1688 1685 1684 0
-1688 1685 1668 0
-1686 1689 0
-1685 -1668 1689 0
-1689 1686 1685 0
-1689 1686 1668 0
-1687 1690 0
-1669 1690 0
-1690 1687 1669 0
-1688 1691 0
-1687 -1669 1691 0
-1691 1688 1687 0
-1691 1688 1669 0
-1689 1692 0
-1688 -1669 1692 0
-1692 1689 1688 0
-1692 1689 1669 0
-1690 1693 0
-1670 1693 0
-1693 1690 1670 0
-1691 1694 0
-1690 -1670 1694 0
-1694 1691 1690 0
-1694 1691 1670 0
-1692 1695 0
-1691 -1670 1695 0
-1695 1692 1691 0
-1695 1692 1670 0
-1693 1696 0
-1671 1696 0
-1696 1693 1671 0
-1694 1697 0
-1693 -1671 1697 0
-1697 1694 1693 0
-1697 1694 1671 0
-1695 1698 0
-1694 -1671 1698 0
-1698 1695 1694 0
-1698 1695 1671 0
-1696 1699 0
-1672 1699 0
-1699 1696 1672 0
-1697 1700 0
-1696 -1672 1700 0
-1700 1697 1696 0
-1700 1697 1672 0
-1698 1701 0
-1697 -1672 1701 0
-1701 1698 1697 0
-1701 1698 1672 0
-1699 1702 0
-1673 1702 0
-1702 1699 1673 0
-1700 1703 0
-1699 -1673 1703 0
-1703 1700 1699 0
-1703 1700 1673 0
-1701 1704 0
-1700 -1673 1704 0
-1704 1701 1700 0
-1704 1701 1673 0
-1702 1705 0
-1674 1705 0
-1705 1702 1674 0
-1703 1706 0
-1702 -1674 1706 0
-1706 1703 1702 0
-1706 1703 1674 0
-1704 1707 0
-1703 -1674 1707 0
-1707 1704 1703 0
-1707 1704 1674 0
-1705 1708 0
-1675 1708 0
-1708 1705 1675 0
-1706 1709 0
-1705 -1675 1709 0
-1709 1706 1705 0
-1709 1706 1675 0
-1707 1710 0
-1706 -1675 1710 0
-1710 1707 1706 0
-1710 1707 1675 0
-1708 1711 0
-1676 1711 0
-1711 1708 1676 0
-1709 1712 0
-1708 -1676 1712 0
-1712 1709 1708 0
-1712 1709 1676 0
-1710 1713 0
-1709 -1676 1713 0
-1713 1710 1709 0
-1713 1710 1676 0
-1711 1714 0
-1677 1714 0
-1714 1711 1677 0
-1712 1715 0
-1711 -1677 1715 0
-1715 1712 1711 0
-1715 1712 1677 0
-1713 1716 0
-1712 -1677 1716 0
-1716 1713 1712 0
-1716 1713 1677 0
1716 0
-1717 1 0
-1717 43 0
1717 -1 -43 0
-1718 2 0
-1718 44 0
1718 -2 -44 0
-1719 3 0
-1719 45 0
1719 -3 -45 0
-1720 4 0
-1720 46 0
1720 -4 -46 0
-1721 5 0
-1721 47 0
1721 -5 -47 0
-1722 6 0
-1722 48 0
1722 -6 -48 0
-1723 7 0
-1723 49 0
1723 -7 -49 0
-1724 8 0
-1724 50 0
1724 -8 -50 0
-1725 9 0
-1725 51 0
1725 -9 -51 0
-1726 10 0
-1726 52 0
1726 -10 -52 0
-1727 11 0
-1727 53 0
1727 -11 -53 0
-1728 12 0
-1728 54 0
1728 -12 -54 0
-1729 13 0
-1729 55 0
1729 -13 -55 0
-1730 14 0
-1730 56 0
1730 -14 -56 0
-1717 1731 0
-1731 1717 0
-1731 1732 0
-1718 1732 0
-1732 1731 1718 0
-1731 -1718 1733 0
-1733 1731 0
-1733 1718 0
-1732 1734 0
-1719 1734 0
-1734 1732 1719 0
-1733 1735 0
-1732 -1719 1735 0
-1735 1733 1732 0
-1735 1733 1719 0
-1733 -1719 1736 0
-1736 1733 0
-1736 1719 0
-1734 1737 0
-1720 1737 0
-1737 1734 1720 0
-1735 1738 0
-1734 -1720 1738 0
-1738 1735 1734 0
-1738 1735 1720 0
-1736 1739 0
-1735 -1720 1739 0
-1739 1736 1735 0
-1739 1736 1720 0
-1737 1740 0
-1721 1740 0
-1740 1737 1721 0
-1738 1741 0
-1737 -1721 1741 0
-1741 1738 1737 0
-1741 1738 1721 0
-1739 1742 0
-1738 -1721 1742 0
-1742 1739 1738 0
-1742 1739 1721 0
-1740 1743 0
-1722 1743 0
-1743 1740 1722 0
-1741 1744 0
-1740 -1722 1744 0
-1744 1741 1740 0
-1744 1741 1722 0
-1742 1745 0
-1741 -1722 1745 0
-1745 1742 1741 0
-1745 1742 1722 0
-1743 1746 0
-1723 1746 0
-1746 1743 1723 0
-1744 1747 0
-1743 -1723 1747 0
-1747 1744 1743 0
-1747 1744 1723 0
-1745 1748 0
-1744 -1723 1748 0
-1748 1745 1744 0
-1748 1745 1723 0
-1746 1749 0
-1724 1749 0
-1749 1746 1724 0
-1747 1750 0
-1746 -1724 1750 0
-1750 1747 1746 0
-1750 1747 1724 0
-1748 1751 0
-1747 -1724 1751 0
-1751 1748 1747 0
-1751 1748 1724 0
-1749 1752 0
-1725 1752 0
-1752 1749 1725 0
-1750 1753 0
-1749 -1725 1753 0
-1753 1750 1749 0
-1753 1750 1725 0
-1751 1754 0
-1750 -1725 1754 0
-1754 1751 1750 0
-1754 1751 1725 0
-1752 1755 0
-1726 1755 0
-1755 1752 1726 0
-1753 1756 0
-1752 -1726 1756 0
-1756 1753 1752 0
-1756 1753 1726 0
-1754 1757 0
-1753 -1726 1757 0
-1757 1754 1753 0
-1757 1754 1726 0
-1755 1758 0
-1727 1758 0
-1758 1755 1727 0
-1756 1759 0
-1755 -1727 1759 0
-1759 1756 1755 0
-1759 1756 1727 0
-1757 1760 0
-1756 -1727 1760 0
-1760 1757 1756 0
-1760 1757 1727 0
-1758 1761 0
-1728 1761 0
-1761 1758 1728 0
-1759 1762 0
-1758 -1728 1762 0
-1762 1759 1758 0
-1762 1759 1728 0
-1760 1763 0
-1759 -1728 1763 0
-1763 1760 1759 0
-1763 1760 1728 0
-1761 1764 0
-1729 1764 0
-1764 1761 1729 0
-1762 1765 0
-1761 -1729 1765 0
-1765 1762 1761 0
-1765 1762 1729 0
-1763 1766 0
-1762 -1729 1766 0
-1766 1763 1762 0
-1766 1763 1729 0
-1764 1767 0
-1730 1767 0
-1767 1764 1730 0
-1765 1768 0
-1764 -1730 1768 0
-1768 1765 1764 0
-1768 1765 1730 0
-1766 1769 0
-1765 -1730 1769 0
-1769 1766 1765 0
-1769 1766 1730 0
1769 0
-1770 1 0
-1770 57 0
1770 -1 -57 0
-1771 2 0
-1771 58 0
1771 -2 -58 0
-1772 3 0
-1772 59 0
1772 -3 -59 0
-1773 4 0
-1773 60 0
1773 -4 -60 0
-1774 5 0
-1774 61 0
1774 -5 -61 0
-1775 6 0
-1775 62 0
1775 -6 -62 0
-1776 7 0
-1776 63 0
1776 -7 -63 0
-1777 8 0
-1777 64 0
1777 -8 -64 0
-1778 9 0
-1778 65 0
1778 -9 -65 0
-1779 10 0
-1779 66 0
1779 -10 -66 0
-1780 11 0
-1780 67 0
1780 -11 -67 0
-1781 12 0
-1781 68 0
1781 -12 -68 0
-1782 13 0
-1782 69 0
1782 -13 -69 0
-1783 14 0
-1783 70 0
1783 -14 -70 0
-1770 1784 0
-1784 1770 0
-1784 1785 0
-1771 1785 0
-1785 1784 1771 0
-1784 -1771 1786 0
-1786 1784 0
-1786 1771 0
-1785 1787 0
-1772 1787 0
-1787 1785 1772 0
-1786 1788 0
-1785 -1772 1788 0
-1788 1786 1785 0
-1788 1786 1772 0
-1786 -1772 1789 0
-1789 1786 0
-1789 1772 0
-1787 1790 0
-1773 1790 0
-1790 1787 1773 0
-1788 1791 0
-1787 -1773 1791 0
-1791 1788 1787 0
-1791 1788 1773 0
-1789 1792 0
-1788 -1773 1792 0
-1792 1789 1788 0
-1792 1789 1773 0
-1790 1793 0
-1774 1793 0
-1793 1790 1774 0
-1791 1794 0
-1790 -1774 1794 0
-1794 1791 1790 0
-1794 1791 1774 0
-1792 1795 0
-1791 -1774 1795 0
-1795 1792 1791 0
-1795 1792 1774 0
-1793 1796 0
-1775 1796 0
-1796 1793 1775 0
-1794 1797 0
-1793 -1775 1797 0
-1797 1794 1793 0
-1797 1794 1775 0
-1795 1798 0
-1794 -1775 1798 0
-1798 1795 1794 0
-1798 1795 1775 0
-1796 1799 0
-1776 1799 0
-1799 1796 1776 0
-1797 1800 0
-1796 -1776 1800 0
-1800 1797 1796 0
-1800 1797 1776 0
-1798 1801 0
-1797 -1776 1801 0
-1801 1798 1797 0
-1801 1798 1776 0
-1799 1802 0
-1777 1802 0
-1802 1799 1777 0
-1800 1803 0
-1799 -1777 1803 0
-1803 1800 1799 0
-1803 1800 1777 0
-1801 1804 0
-1800 -1777 1804 0
-1804 1801 1800 0
-1804 1801 1777 0
-1802 1805 0
-1778 1805 0
-1805 1802 1778 0
-1803 1806 0
-1802 -1778 1806 0
-1806 1803 1802 0
-1806 1803 1778 0
-1804 1807 0
-1803 -1778 1807 0
-1807 1804 1803 0
-1807 1804 1778 0
-1805 1808 0
-1779 1808 0
-1808 1805 1779 0
-1806 1809 0
-1805 -1779 1809 0
-1809 1806 1805 0
-1809 1806 1779 0
-1807 1810 0
-1806 -1779 1810 0
-1810 1807 1806 0
-1810 1807 1779 0
-1808 1811 0
-1780 1811 0
-1811 1808 1780 0
-1809 1812 0
-1808 -1780 1812 0
-1812 1809 1808 0
-1812 1809 1780 0
-1810 1813 0
-1809 -1780 1813 0
-1813 1810 1809 0
-1813 1810 1780 0
-1811 1814 0
-1781 1814 0
-1814 1811 1781 0
-1812 1815 0
-1811 -1781 1815 0
-1815 1812 1811 0
-1815 1812 1781 0
-1813 1816 0
-1812 -1781 1816 0
-1816 1813 1812 0
-1816 1813 1781 0
-1814 1817 0
-1782 1817 0
-1817 1814 1782 0
-1815 1818 0
-1814 -1782 1818 0
-1818 1815 1814 0
-1818 1815 1782 0
-1816 1819 0
-1815 -1782 1819 0
-1819 1816 1815 0
-1819 1816 1782 0
-1817 1820 0
-1783 1820 0
-1820 1817 1783 0
-1818 1821 0
-1817 -1783 1821 0
-1821 1818 1817 0
-1821 1818 1783 0
-1819 1822 0
-1818 -1783 1822 0
-1822 1819 1818 0
-1822 1819 1783 0
1822 0
-1823 1 0
-1823 71 0
1823 -1 -71 0
-1824 2 0
-1824 72 0
1824 -2 -72 0
-1825 3 0
-1825 73 0
1825 -3 -73 0
-1826 4 0
-1826 74 0
1826 -4 -74 0
-1827 5 0
-1827 75 0
1827 -5 -75 0
-1828 6 0
-1828 76 0
1828 -6 -76 0
-1829 7 0
-1829 77 0
1829 -7 -77 0
-1830 8 0
-1830 78 0
1830 -8 -78 0
-1831 9 0
-1831 79 0
1831 -9 -79 0
-1832 10 0
-1832 80 0
1832 -10 -80 0
-1833 11 0
-1833 81 0
1833 -11 -81 0
-1834 12 0
-1834 82 0
1834 -12 -82 0
-1835 13 0
-1835 83 0
1835 -13 -83 0
-1836 14 0
-1836 84 0
1836 -14 -84 0
-1823 1837 0
-1837 1823 0
-1837 1838 0
-1824 1838 0
-1838 1837 1824 0
-1837 -1824 1839 0
-1839 1837 0
-1839 1824 0
-1838 1840 0
-1825 1840 0
-1840 1838 1825 0
-1839 1841 0
-1838 -1825 1841 0
-1841 1839 1838 0
-1841 1839 1825 0
-1839 -1825 1842 0
-1842 1839 0
-1842 1825 0
-1840 1843 0
-1826 1843 0
-1843 1840 1826 0
-1841 1844 0
-1840 -1826 1844 0
-1844 1841 1840 0
-1844 1841 1826 0
-1842 1845 0
-1841 -1826 1845 0
-1845 1842 1841 0
-1845 1842 1826 0
-1843 1846 0
-1827 1846 0
-1846 1843 1827 0
-1844 1847 0
-1843 -1827 1847 0
-1847 1844 1843 0
-1847 1844 1827 0
-1845 1848 0
-1844 -1827 1848 0
-1848 1845 1844 0
-1848 1845 1827 0
-1846 1849 0
-1828 1849 0
-1849 1846 1828 0
-1847 1850 0
-1846 -1828 1850 0
-1850 1847 1846 0
-1850 1847 1828 0
-1848 1851 0
-1847 -1828 1851 0
-1851 1848 1847 0
-1851 1848 1828 0
-1849 1852 0
-1829 1852 0
-1852 1849 1829 0
-1850 1853 0
-1849 -1829 1853 0
-1853 1850 1849 0
-1853 1850 1829 0
-1851 1854 0
-1850 -1829 1854 0
-1854 1851 1850 0
-1854 1851 1829 0
-1852 1855 0
-1830 1855 0
-1855 1852 1830 0
-1853 1856 0
-1852 -1830 1856 0
-1856 1853 1852 0
-1856 1853 1830 0
-1854 1857 0
-1853 -1830 1857 0
-1857 1854 1853 0
-1857 1854 1830 0
-1855 1858 0
-1831 1858 0
-1858 1855 1831 0
-1856 1859 0
-1855 -1831 1859 0
-1859 1856 1855 0
-1859 1856 1831 0
-1857 1860 0
-1856 -1831 1860 0
-1860 1857 1856 0
-1860 1857 1831 0
-1858 1861 0
-1832 1861 0
-1861 1858 1832 0
-1859 1862 0
-1858 -1832 1862 0
-1862 1859 1858 0
-1862 1859 1832 0
-1860 1863 0
-1859 -1832 1863 0
-1863 1860 1859 0
-1863 1860 1832 0
-1861 1864 0
-1833 1864 0
-1864 1861 1833 0
-1862 1865 0
-1861 -1833 1865 0
-1865 1862 1861 0
-1865 1862 1833 0
-1863 1866 0
-1862 -1833 1866 0
-1866 1863 1862 0
-1866 1863 1833 0
-1864 1867 0
-1834 1867 0
-1867 1864 1834 0
-1865 1868 0
-1864 -1834 1868 0
-1868 1865 1864 0
-1868 1865 1834 0
-1866 1869 0
-1865 -1834 1869 0
-1869 1866 1865 0
-1869 1866 1834 0
-1867 1870 0
-1835 1870 0
-1870 1867 1835 0
-1868 1871 0
-1867 -1835 1871 0
-1871 1868 1867 0
-1871 1868 1835 0
-1869 1872 0
-1868 -1835 1872 0
-1872 1869 1868 0
-1872 1869 1835 0
-1870 1873 0
-1836 1873 0
-1873 1870 1836 0
-1871 1874 0
-1870 -1836 1874 0
-1874 1871 1870 0
-1874 1871 1836 0
-1872 1875 0
-1871 -1836 1875 0
-1875 1872 1871 0
-1875 1872 1836 0
1875 0
-1876 1 0
-1876 85 0
1876 -1 -85 0
-1877 2 0
-1877 86 0
1877 -2 -86 0
-1878 3 0
-1878 87 0
1878 -3 -87 0
-1879 4 0
-1879 88 0
1879 -4 -88 0
-1880 5 0
-1880 89 0
1880 -5 -89 0
-1881 6 0
-1881 90 0
1881 -6 -90 0
-1882 7 0
-1882 91 0
1882 -7 -91 0
-1883 8 0
-1883 92 0
1883 -8 -92 0
-1884 9 0
-1884 93 0
1884 -9 -93 0
-1885 10 0
-1885 94 0
1885 -10 -94 0
-1886 11 0
-1886 95 0
1886 -11 -95 0
-1887 12 0
-1887 96 0
1887 -12 -96 0
-1888 13 0
-1888 97 0
1888 -13 -97 0
-1889 14 0
-1889 98 0
1889 -14 -98 0
-1876 1890 0
-1890 1876 0
-1890 1891 0
-1877 1891 0
-1891 1890 1877 0
-1890 -1877 1892 0
-1892 1890 0
-1892 1877 0
-1891 1893 0
-1878 1893 0
-1893 1891 1878 0
-1892 1894 0
-1891 -1878 1894 0
-1894 1892 1891 0
-1894 1892 1878 0
-1892 -1878 1895 0
-1895 1892 0
-1895 1878 0
-1893 1896 0
-1879 1896 0
-1896 1893 1879 0
-1894 1897 0
-1893 -1879 1897 0
-1897 1894 1893 0
-1897 1894 1879 0
-1895 1898 0
-1894 -1879 1898 0
-1898 1895 1894 0
-1898 1895 1879 0
-1896 1899 0
-1880 1899 0
-1899 1896 1880 0
-1897 1900 0
-1896 -1880 1900 0
-1900 1897 1896 0
-1900 1897 1880 0
-1898 1901 0
-1897 -1880 1901 0
-1901 1898 1897 0
-1901 1898 1880 0
-1899 1902 0
-1881 1902 0
-1902 1899 1881 0
-1900 1903 0
-1899 -1881 1903 0
-1903 1900 1899 0
-1903 1900 1881 0
-1901 1904 0
-1900 -1881 1904 0
-1904 1901 1900 0
-1904 1901 1881 0
-1902 1905 0
-1882 1905 0
-1905 1902 1882 0
-1903 1906 0
-1902 -1882 1906 0
-1906 1903 1902 0
-1906 1903 1882 0
-1904 1907 0
-1903 -1882 1907 0
-1907 1904 1903 0
-1907 1904 1882 0
-1905 1908 0
-1883 1908 0
-1908 1905 1883 0
-1906 1909 0
-1905 -1883 1909 0
-1909 1906 1905 0
-1909 1906 1883 0
-1907 1910 0
-1906 -1883 1910 0
-1910 1907 1906 0
-1910 1907 1883 0
-1908 1911 0
-1884 1911 0
-1911 1908 1884 0
-1909 1912 0
-1908 -1884 1912 0
-1912 1909 1908 0
-1912 1909 1884 0
-1910 1913 0
-1909 -1884 1913 0
-1913 1910 1909 0
-1913 1910 1884 0
-1911 1914 0
-1885 1914 0
-1914 1911 1885 0
-1912 1915 0
-1911 -1885 1915 0
-1915 1912 1911 0
-1915 1912 1885 0
-1913 1916 0
-1912 -1885 1916 0
-1916 1913 1912 0
-1916 1913 1885 0
-1914 1917 0
-1886 1917 0
-1917 1914 1886 0
-1915 1918 0
-1914 -1886 1918 0
-1918 1915 1914 0
-1918 1915 1886 0
-1916 1919 0
-1915 -1886 1919 0
-1919 1916 1915 0
-1919 1916 1886 0
-1917 1920 0
-1887 1920 0
-1920 1917 1887 0
-1918 1921 0
-1917 -1887 1921 0
-1921 1918 1917 0
-1921 1918 1887 0
-1919 1922 0
-1918 -1887 1922 0
-1922 1919 1918 0
-1922 1919 1887 0
-1920 1923 0
-1888 1923 0
-1923 1920 1888 0
-1921 1924 0
-1920 -1888 1924 0
-1924 1921 1920 0
-1924 1921 1888 0
-1922 1925 0
-1921 -1888 1925 0
-1925 1922 1921 0
-1925 1922 1888 0
-1923 1926 0
-1889 1926 0
-1926 1923 1889 0
-1924 1927 0
-1923 -1889 1927 0
-1927 1924 1923 0
-1927 1924 1889 0
-1925 1928 0
-1924 -1889 1928 0
-1928 1925 1924 0
-1928 1925 1889 0
1928 0
-1929 1 0
-1929 99 0
1929 -1 -99 0
-1930 2 0
-1930 100 0
1930 -2 -100 0
-1931 3 0
-1931 101 0
1931 -3 -101 0
-1932 4 0
-1932 102 0
1932 -4 -102 0
-1933 5 0
-1933 103 0
1933 -5 -103 0
-1934 6 0
-1934 104 0
1934 -6 -104 0
-1935 7 0
-1935 105 0
1935 -7 -105 0
-1936 8 0
-1936 106 0
1936 -8 -106 0
-1937 9 0
-1937 107 0
1937 -9 -107 0
-1938 10 0
-1938 108 0
1938 -10 -108 0
-1939 11 0
-1939 109 0
1939 -11 -109 0
-1940 12 0
-1940 110 0
1940 -12 -110 0
-1941 13 0
-1941 111 0
1941 -13 -111 0
-1942 14 0
-1942 112 0
1942 -14 -112 0
-1929 1943 0
-1943 1929 0
-1943 1944 0
-1930 1944 0
-1944 1943 1930 0
-1943 -1930 1945 0
-1945 1943 0
-1945 1930 0
-1944 1946 0
-1931 1946 0
-1946 1944 1931 0
-1945 1947 0
-1944 -1931 1947 0
-1947 1945 1944 0
-1947 1945 1931 0
-1945 -1931 1948 0
-1948 1945 0
-1948 1931 0
-1946 1949 0
-1932 1949 0
-1949 1946 1932 0
-1947 1950 0
-1946 -1932 1950 0
-1950 1947 1946 0
-1950 1947 1932 0
-1948 1951 0
-1947 -1932 1951 0
-1951 1948 1947 0
-1951 1948 1932 0
-1949 1952 0
-1933 1952 0
-1952 1949 1933 0
-1950 1953 0
-1949 -1933 1953 0
-1953 1950 1949 0
-1953 1950 1933 0
-1951 1954 0
-1950 -1933 1954 0
-1954 1951 1950 0
-1954 1951 1933 0
-1952 1955 0
-1934 1955 0
-1955 1952 1934 0
-1953 1956 0
-1952 -1934 1956 0
-1956 1953 1952 0
-1956 1953 1934 0
-1954 1957 0
-1953 -1934 1957 0
-1957 1954 1953 0
-1957 1954 1934 0
-1955 1958 0
-1935 1958 0
-1958 1955 1935 0
-1956 1959 0
-1955 -1935 1959 0
-1959 1956 1955 0
-1959 1956 1935 0
-1957 1960 0
-1956 -1935 1960 0
-1960 1957 1956 0
-1960 1957 1935 0
-1958 1961 0
-1936 1961 0
-1961 1958 1936 0
-1959 1962 0
-1958 -1936 1962 0
-1962 1959 1958 0
-1962 1959 1936 0
-1960 1963 0
-1959 -1936 1963 0
-1963 1960 1959 0
-1963 1960 1936 0
-1961 1964 0
-1937 1964 0
-1964 1961 1937 0
-1962 1965 0
-1961 -1937 1965 0
-1965 1962 1961 0
-1965 1962 1937 0
-1963 1966 0
-1962 -1937 1966 0
-1966 1963 1962 0
-1966 1963 1937 0
-1964 1967 0
-1938 1967 0
-1967 1964 1938 0
-1965 1968 0
-1964 -1938 1968 0
-1968 1965 1964 0
-1968 1965 1938 0
-1966 1969 0
-1965 -1938 1969 0
-1969 1966 1965 0
-1969 1966 1938 0
-1967 1970 0
-1939 1970 0
-1970 1967 1939 0
-1968 1971 0
-1967 -1939 1971 0
-1971 1968 1967 0
-1971 1968 1939 0
-1969 1972 0
-1968 -1939 1972 0
-1972 1969 1968 0
-1972 1969 1939 0
-1970 1973 0
-1940 1973 0
-1973 1970 1940 0
-1971 1974 0
-1970 -1940 1974 0
-1974 1971 1970 0
-1974 1971 1940 0
-1972 1975 0
-1971 -1940 1975 0
-1975 1972 1971 0
-1975 1972 1940 0
-1973 1976 0
-1941 1976 0
-1976 1973 1941 0
-1974 1977 0
-1973 -1941 1977 0
-1977 1974 1973 0
-1977 1974 1941 0
-1975 1978 0
-1974 -1941 1978 0
-1978 1975 1974 0
-1978 1975 1941 0
-1976 1979 0
-1942 1979 0
-1979 1976 1942 0
-1977 1980 0
-1976 -1942 1980 0
-1980 1977 1976 0
-1980 1977 1942 0
-1978 1981 0
-1977 -1942 1981 0
-1981 1978 1977 0
-1981 1978 1942 0
1981 0
-1982 1 0
-1982 113 0
1982 -1 -113 0
-1983 2 0
-1983 114 0
1983 -2 -114 0
-1984 3 0
-1984 115 0
1984 -3 -115 0
-1985 4 0
-1985 116 0
1985 -4 -116 0
-1986 5 0
-1986 117 0
1986 -5 -117 0
-1987 6 0
-1987 118 0
1987 -6 -118 0
-1988 7 0
-1988 119 0
1988 -7 -119 0
-1989 8 0
-1989 120 0
1989 -8 -120 0
-1990 9 0
-1990 121 0
1990 -9 -121 0
-1991 10 0
-1991 122 0
1991 -10 -122 0
-1992 11 0
-1992 123 0
1992 -11 -123 0
-1993 12 0
-1993 124 0
1993 -12 -124 0
-1994 13 0
-1994 125 0
1994 -13 -125 0
-1995 14 0
-1995 126 0
1995 -14 -126 0
-1982 1996 0
-1996 1982 0
-1996 1997 0
-1983 1997 0
-1997 1996 1983 0
-1996 -1983 1998 0
-1998 1996 0
-1998 1983 0
-1997 1999 0
-1984 1999 0
-1999 1997 1984 0
-1998 2000 0
-1997 -1984 2000 0
-2000 1998 1997 0
-2000 1998 1984 0
-1998 -1984 2001 0
-2001 1998 0
-2001 1984 0
-1999 2002 0
-1985 2002 0
-2002 1999 1985 0
-2000 2003 0
-1999 -1985 2003 0
-2003 2000 1999 0
-2003 2000 1985 0
-2001 2004 0
-2000 -1985 2004 0
-2004 2001 2000 0
-2004 2001 1985 0
-2002 2005 0
-1986 2005 0
-2005 2002 1986 0
-2003 2006 0
-2002 -1986 2006 0
-2006 2003 2002 0
-2006 2003 1986 0
-2004 2007 0
-2003 -1986 2007 0
-2007 2004 2003 0
-2007 2004 1986 0
-2005 2008 0
-1987 2008 0
-2008 2005 1987 0
-2006 2009 0
-2005 -1987 2009 0
-2009 2006 2005 0
-2009 2006 1987 0
-2007 2010 0
-2006 -1987 2010 0
-2010 2007 2006 0
-2010 2007 1987 0
-2008 2011 0
-1988 2011 0
-2011 2008 1988 0
-2009 2012 0
-2008 -1988 2012 0
-2012 2009 2008 0
-2012 2009 1988 0
-2010 2013 0
-2009 -1988 2013 0
-2013 2010 2009 0
-2013 2010 1988 0
-2011 2014 0
-1989 2014 0
-2014 2011 1989 0
-2012 2015 0
-2011 -1989 2015 0
-2015 2012 2011 0
-2015 2012 1989 0
-2013 2016 0
-2012 -1989 2016 0
-2016 2013 2012 0
-2016 2013 1989 0
-2014 2017 0
-1990 2017 0
-2017 2014 1990 0
-2015 2018 0
-2014 -1990 2018 0
-2018 2015 2014 0
-2018 2015 1990 0
-2016 2019 0
-2015 -1990 2019 0
-2019 2016 2015 0
-2019 2016 1990 0
-2017 2020 0
-1991 2020 0
-2020 2017 1991 0
-2018 2021 0
-2017 -1991 2021 0
-2021 2018 2017 0
-2021 2018 1991 0
-2019 2022 0
-2018 -1991 2022 0
-2022 2019 2018 0
-2022 2019 1991 0
-2020 2023 0
-1992 2023 0
-2023 2020 1992 0
-2021 2024 0
-2020 -1992 2024 0
-2024 2021 2020 0
-2024 2021 1992 0
-2022 2025 0
-2021 -1992 2025 0
-2025 2022 2021 0
-2025 2022 1992 0
-2023 2026 0
-1993 2026 0
-2026 2023 1993 0
-2024 2027 0
-2023 -1993 2027 0
-2027 2024 2023 0
-2027 2024 1993 0
-2025 2028 0
-2024 -1993 2028 0
-2028 2025 2024 0
-2028 2025 1993 0
-2026 2029 0
-1994 2029 0
-2029 2026 1994 0
-2027 2030 0
-2026 -1994 2030 0
-2030 2027 2026 0
-2030 2027 1994 0
-2028 2031 0
-2027 -1994 2031 0
-2031 2028 2027 0
-2031 2028 1994 0
-2029 2032 0
-1995 2032 0
-2032 2029 1995 0
-2030 2033 0
-2029 -1995 2033 0
-2033 2030 2029 0
-2033 2030 1995 0
-2031 2034 0
-2030 -1995 2034 0
-2034 2031 2030 0
-2034 2031 1995 0
2034 0
-2035 1 0
-2035 127 0
2035 -1 -127 0
-2036 2 0
-2036 128 0
2036 -2 -128 0
-2037 3 0
-2037 129 0
2037 -3 -129 0
-2038 4 0
-2038 130 0
2038 -4 -130 0
-2039 5 0
-2039 131 0
2039 -5 -131 0
-2040 6 0
-2040 132 0
2040 -6 -132 0
-2041 7 0
-2041 133 0
2041 -7 -133 0
-2042 8 0
-2042 134 0
2042 -8 -134 0
-2043 9 0
-2043 135 0
2043 -9 -135 0
-2044 10 0
-2044 136 0
2044 -10 -136 0
-2045 11 0
-2045 137 0
2045 -11 -137 0
-2046 12 0
-2046 138 0
2046 -12 -138 0
-2047 13 0
-2047 139 0
2047 -13 -139 0
-2048 14 0
-2048 140 0
2048 -14 -140 0
-2035 2049 0
-2049 2035 0
-2049 2050 0
-2036 2050 0
-2050 2049 2036 0
-2049 -2036 2051 0
-2051 2049 0
-2051 2036 0
-2050 2052 0
-2037 2052 0
-2052 2050 2037 0
-2051 2053 0
-2050 -2037 2053 0
-2053 2051 2050 0
-2053 2051 2037 0
-2051 -2037 2054 0
-2054 2051 0
-2054 2037 0
-2052 2055 0
-2038 2055 0
-2055 2052 2038 0
-2053 2056 0
-2052 -2038 2056 0
-2056 2053 2052 0
-2056 2053 2038 0
-2054 2057 0
-2053 -2038 2057 0
-2057 2054 2053 0
-2057 2054 2038 0
-2055 2058 0
-2039 2058 0
-2058 2055 2039 0
-2056 2059 0
-2055 -2039 2059 0
-2059 2056 2055 0
-2059 2056 2039 0
-2057 2060 0
-2056 -2039 2060 0
-2060 2057 2056 0
-2060 2057 2039 0
-2058 2061 0
-2040 2061 0
-2061 2058 2040 0
-2059 2062 0
-2058 -2040 2062 0
-2062 2059 2058 0
-2062 2059 2040 0
-2060 2063 0
-2059 -2040 2063 0
-2063 2060 2059 0
-2063 2060 2040 0
-2061 2064 0
-2041 2064 0
-2064 2061 2041 0
-2062 2065 0
-2061 -2041 2065 0
-2065 2062 2061 0
-2065 2062 2041 0
-2063 2066 0
-2062 -2041 2066 0
-2066 2063 2062 0
-2066 2063 2041 0
-2064 2067 0
-2042 2067 0
-2067 2064 2042 0
-2065 2068 0
-2064 -2042 2068 0
-2068 2065 2064 0
-2068 2065 2042 0
-2066 2069 0
-2065 -2042 2069 0
-2069 2066 2065 0
-2069 2066 2042 0
-2067 2070 0
-2043 2070 0
-2070 2067 2043 0
-2068 2071 0
-2067 -2043 2071 0
-2071 2068 2067 0
-2071 2068 2043 0
-2069 2072 0
-2068 -2043 2072 0
-2072 2069 2068 0
-2072 2069 2043 0
-2070 2073 0
-2044 2073 0
-2073 2070 2044 0
-2071 2074 0
-2070 -2044 2074 0
-2074 2071 2070 0
-2074 2071 2044 0
-2072 2075 0
-2071 -2044 2075 0
-2075 2072 2071 0
-2075 2072 2044 0
-2073 2076 0
-2045 2076 0
-2076 2073 2045 0
-2074 2077 0
-2073 -2045 2077 0
-2077 2074 2073 0
-2077 2074 2045 0
-2075 2078 0
-2074 -2045 2078 0
-2078 2075 2074 0
-2078 2075 2045 0
-2076 2079 0
-2046 2079 0
-2079 2076 2046 0
-2077 2080 0
-2076 -2046 2080 0
-2080 2077 2076 0
-2080 2077 2046 0
-2078 2081 0
-2077 -2046 2081 0
-2081 2078 2077 0
-2081 2078 2046 0
-2079 2082 0
-2047 2082 0
-2082 2079 2047 0
-2080 2083 0
-2079 -2047 2083 0
-2083 2080 2079 0
-2083 2080 2047 0
-2081 2084 0
-2080 -2047 2084 0
-2084 2081 2080 0
-2084 2081 2047 0
-2082 2085 0
-2048 2085 0
-2085 2082 2048 0
-2083 2086 0
-2082 -2048 2086 0
-2086 2083 2082 0
-2086 2083 2048 0
-2084 2087 0
-2083 -2048 2087 0
-2087 2084 2083 0
-2087 2084 2048 0
2087 0
-2088 15 0
-2088 29 0
2088 -15 -29 0
-2089 16 0
-2089 30 0
2089 -16 -30 0
-2090 17 0
-2090 31 0
2090 -17 -31 0
-2091 18 0
-2091 32 0
2091 -18 -32 0
-2092 19 0
-2092 33 0
2092 -19 -33 0
-2093 20 0
-2093 34 0
2093 -20 -34 0
-2094 21 0
-2094 35 0
2094 -21 -35 0
-2095 22 0
-2095 36 0
2095 -22 -36 0
-2096 23 0
-2096 37 0
2096 -23 -37 0
-2097 24 0
-2097 38 0
2097 -24 -38 0
-2098 25 0
-2098 39 0
2098 -25 -39 0
-2099 26 0
-2099 40 0
2099 -26 -40 0
-2100 27 0
-2100 41 0
2100 -27 -41 0
-2101 28 0
-2101 42 0
2101 -28 -42 0
-2088 2102 0
-2102 2088 0
-2102 2103 0
-2089 2103 0
-2103 2102 2089 0
-2102 -2089 2104 0
-2104 2102 0
-2104 2089 0
-2103 2105 0
-2090 2105 0
-2105 2103 2090 0
-2104 2106 0
-2103 -2090 2106 0
-2106 2104 2103 0
-2106 2104 2090 0
-2104 -2090 2107 0
-2107 2104 0
-2107 2090 0
-2105 2108 0
-2091 2108 0
-2108 2105 2091 0
-2106 2109 0
-2105 -2091 2109 0
-2109 2106 2105 0
-2109 2106 2091 0
-2107 2110 0
-2106 -2091 2110 0
-2110 2107 2106 0
-2110 2107 2091 0
-2108 2111 0
-2092 2111 0
-2111 2108 2092 0
-2109 2112 0
-2108 -2092 2112 0
-2112 2109 2108 0
-2112 2109 2092 0
-2110 2113 0
-2109 -2092 2113 0
-2113 2110 2109 0
-2113 2110 2092 0
-2111 2114 0
-2093 2114 0
-2114 2111 2093 0
-2112 2115 0
-2111 -2093 2115 0
-2115 2112 2111 0
-2115 2112 2093 0
-2113 2116 0
-2112 -2093 2116 0
-2116 2113 2112 0
-2116 2113 2093 0
-2114 2117 0
-2094 2117 0
-2117 2114 2094 0
-2115 2118 0
-2114 -2094 2118 0
-2118 2115 2114 0
-2118 2115 2094 0
-2116 2119 0
-2115 -2094 2119 0
-2119 2116 2115 0
-2119 2116 2094 0
-2117 2120 0
-2095 2120 0
-2120 2117 2095 0
-2118 2121 0
-2117 -2095 2121 0
-2121 2118 2117 0
-2121 2118 2095 0
-2119 2122 0
-2118 -2095 2122 0
-2122 2119 2118 0
-2122 2119 2095 0
-2120 2123 0
-2096 2123 0
-2123 2120 2096 0
-2121 2124 0
-2120 -2096 2124 0
-2124 2121 2120 0
-2124 2121 2096 0
-2122 2125 0
-2121 -2096 2125 0
-2125 2122 2121 0
-2125 2122 2096 0
-2123 2126 0
-2097 2126 0
-2126 2123 2097 0
-2124 2127 0
-2123 -2097 2127 0
-2127 2124 2123 0
-2127 2124 2097 0
-2125 2128 0
-2124 -2097 2128 0
-2128 2125 2124 0
-2128 2125 2097 0
-2126 2129 0
-2098 2129 0
-2129 2126 2098 0
-2127 2130 0
-2126 -2098 2130 0
-2130 2127 2126 0
-2130 2127 2098 0
-2128 2131 0
-2127 -2098 2131 0
-2131 2128 2127 0
-2131 2128 2098 0
-2129 2132 0
-2099 2132 0
-2132 2129 2099 0
-2130 2133 0
-2129 -2099 2133 0
-2133 2130 2129 0
-2133 2130 2099 0
-2131 2134 0
-2130 -2099 2134 0
-2134 2131 2130 0
-2134 2131 2099 0
-2132 2135 0
-2100 2135 0
-2135 2132 2100 0
-2133 2136 0
-2132 -2100 2136 0
-2136 2133 2132 0
-2136 2133 2100 0
-2134 2137 0
-2133 -2100 2137 0
-2137 2134 2133 0
-2137 2134 2100 0
-2135 2138 0
-2101 2138 0
-2138 2135 2101 0
-2136 2139 0
-2135 -2101 2139 0
-2139 2136 2135 0
-2139 2136 2101 0
-2137 2140 0
-2136 -2101 2140 0
-2140 2137 2136 0
-2140 2137 2101 0
2140 0
-2141 15 0
-2141 43 0
2141 -15 -43 0
-2142 16 0
-2142 44 0
2142 -16 -44 0
-2143 17 0
-2143 45 0
2143 -17 -45 0
-2144 18 0
-2144 46 0
2144 -18 -46 0
-2145 19 0
-2145 47 0
2145 -19 -47 0
-2146 20 0
-2146 48 0
2146 -20 -48 0
-2147 21 0
-2147 49 0
2147 -21 -49 0
-2148 22 0
-2148 50 0
2148 -22 -50 0
-2149 23 0
-2149 51 0
2149 -23 -51 0
-2150 24 0
-2150 52 0
2150 -24 -52 0
-2151 25 0
-2151 53 0
2151 -25 -53 0
-2152 26 0
-2152 54 0
2152 -26 -54 0
-2153 27 0
-2153 55 0
2153 -27 -55 0
-2154 28 0
-2154 56 0
2154 -28 -56 0
-2141 2155 0
-2155 2141 0
-2155 2156 0
-2142 2156 0
-2156 2155 2142 0
-2155 -2142 2157 0
-2157 2155 0
-2157 2142 0
-2156 2158 0
-2143 2158 0
-2158 2156 2143 0
-2157 2159 0
-2156 -2143 2159 0
-2159 2157 2156 0
-2159 2157 2143 0
-2157 -2143 2160 0
-2160 2157 0
-2160 2143 0
-2158 2161 0
-2144 2161 0
-2161 2158 2144 0
-2159 2162 0
-2158 -2144 2162 0
-2162 2159 2158 0
-2162 2159 2144 0
-2160 2163 0
-2159 -2144 2163 0
-2163 2160 2159 0
-2163 2160 2144 0
-2161 2164 0
-2145 2164 0
-2164 2161 2145 0
-2162 2165 0
-2161 -2145 2165 0
-2165 2162 2161 0
-2165 2162 2145 0
-2163 2166 0
-2162 -2145 2166 0
-2166 2163 2162 0
-2166 2163 2145 0
-2164 2167 0
-2146 2167 0
-2167 2164 2146 0
-2165 2168 0
-2164 -2146 2168 0
-2168 2165 2164 0
-2168 2165 2146 0
-2166 2169 0
-2165 -2146 2169 0
-2169 2166 2165 0
-2169 2166 2146 0
-2167 2170 0
-2147 2170 0
-2170 2167 2147 0
-2168 2171 0
-2167 -2147 2171 0
-2171 2168 2167 0
-2171 2168 2147 0
-2169 2172 0
-2168 -2147 2172 0
-2172 2169 2168 0
-2172 2169 2147 0
-2170 2173 0
-2148 2173 0
-2173 2170 2148 0
-2171 2174 0
-2170 -2148 2174 0
-2174 2171 2170 0
-2174 2171 2148 0
-2172 2175 0
-2171 -2148 2175 0
-2175 2172 2171 0
-2175 2172 2148 0
-2173 2176 0
-2149 2176 0
-2176 2173 2149 0
-2174 2177 0
-2173 -2149 2177 0
-2177 2174 2173 0
-2177 2174 2149 0
-2175 2178 0
-2174 -2149 2178 0
-2178 2175 2174 0
-2178 2175 2149 0
-2176 2179 0
-2150 2179 0
-2179 2176 2150 0
-2177 2180 0
-2176 -2150 2180 0
-2180 2177 2176 0
-2180 2177 2150 0
-2178 2181 0
-2177 -2150 2181 0
-2181 2178 2177 0
-2181 2178 2150 0
-2179 2182 0
-2151 2182 0
-2182 2179 2151 0
-2180 2183 0
-2179 -2151 2183 0
-2183 2180 2179 0
-2183 2180 2151 0
-2181 2184 0
-2180 -2151 2184 0
-2184 2181 2180 0
-2184 2181 2151 0
-2182 2185 0
-2152 2185 0
-2185 2182 2152 0
-2183 2186 0
-2182 -2152 2186 0
-2186 2183 2182 0
-2186 2183 2152 0
-2184 2187 0
-2183 -2152 2187 0
-2187 2184 2183 0
-2187 2184 2152 0
-2185 2188 0
-2153 2188 0
-2188 2185 2153 0
-2186 2189 0
-2185 -2153 2189 0
-2189 2186 2185 0
-2189 2186 2153 0
-2187 2190 0
-2186 -2153 2190 0
-2190 2187 2186 0
-2190 2187 2153 0
-2188 2191 0
-2154 2191 0
-2191 2188 2154 0
-2189 2192 0
-2188 -2154 2192 0
-2192 2189 2188 0
-2192 2189 2154 0
-2190 2193 0
-2189 -2154 2193 0
-2193 2190 2189 0
-2193 2190 2154 0
2193 0
-2194 15 0
-2194 57 0
2194 -15 -57 0
-2195 16 0
-2195 58 0
2195 -16 -58 0
-2196 17 0
-2196 59 0
2196 -17 -59 0
-2197 18 0
-2197 60 0
2197 -18 -60 0
-2198 19 0
-2198 61 0
2198 -19 -61 0
-2199 20 0
-2199 62 0
2199 -20 -62 0
-2200 21 0
-2200 63 0
2200 -21 -63 0
-2201 22 0
-2201 64 0
2201 -22 -64 0
-2202 23 0
-2202 65 0
2202 -23 -65 0
-2203 24 0
-2203 66 0
2203 -24 -66 0
-2204 25 0
-2204 67 0
2204 -25 -67 0
-2205 26 0
-2205 68 0
2205 -26 -68 0
-2206 27 0
-2206 69 0
2206 -27 -69 0
-2207 28 0
-2207 70 0
2207 -28 -70 0
-2194 2208 0
-2208 2194 0
-2208 2209 0
-2195 2209 0
-2209 2208 2195 0
-2208 -2195 2210 0
-2210 2208 0
-2210 2195 0
-2209 2211 0
-2196 2211 0
-2211 2209 2196 0
-2210 2212 0
-2209 -2196 2212 0
-2212 2210 2209 0
-2212 2210 2196 0
-2210 -2196 2213 0
-2213 2210 0
-2213 2196 0
-2211 2214 0
-2197 2214 0
-2214 2211 2197 0
-2212 2215 0
-2211 -2197 2215 0
-2215 2212 2211 0
-2215 2212 2197 0
-2213 2216 0
-2212 -2197 2216 0
-2216 2213 2212 0
-2216 2213 2197 0
-2214 2217 0
-2198 2217 0
-2217 2214 2198 0
-2215 2218 0
-2214 -2198 2218 0
-2218 2215 2214 0
-2218 2215 2198 0
-2216 2219 0
-2215 -2198 2219 0
-2219 2216 2215 0
-2219 2216 2198 0
-2217 2220 0
-2199 2220 0
-2220 2217 2199 0
-2218 2221 0
-2217 -2199 2221 0
-2221 2218 2217 0
-2221 2218 2199 0
-2219 2222 0
-2218 -2199 2222 0
-2222 2219 2218 0
-2222 2219 2199 0
-2220 2223 0
-2200 2223 0
-2223 2220 2200 0
-2221 2224 0
-2220 -2200 2224 0
-2224 2221 2220 0
-2224 2221 2200 0
-2222 2225 0
-2221 -2200 2225 0
-2225 2222 2221 0
-2225 2222 2200 0
-2223 2226 0
-2201 2226 0
-2226 2223 2201 0
-2224 2227 0
-2223 -2201 2227 0
-2227 2224 2223 0
-2227 2224 2201 0
-2225 2228 0
-2224 -2201 2228 0
-2228 2225 2224 0
-2228 2225 2201 0
-2226 2229 0
-2202 2229 0
-2229 2226 2202 0
-2227 2230 0
-2226 -2202 2230 0
-2230 2227 2226 0
-2230 2227 2202 0
-2228 2231 0
-2227 -2202 2231 0
-2231 2228 2227 0
-2231 2228 2202 0
-2229 2232 0
-2203 2232 0
-2232 2229 2203 0
-2230 2233 0
-2229 -2203 2233 0
-2233 2230 2229 0
-2233 2230 2203 0
-2231 2234 0
-2230 -2203 2234 0
-2234 2231 2230 0
-2234 2231 2203 0
-2232 2235 0
-2204 2235 0
-2235 2232 2204 0
-2233 2236 0
-2232 -2204 2236 0
-2236 2233 2232 0
-2236 2233 2204 0
-2234 2237 0
-2233 -2204 2237 0
-2237 2234 2233 0
-2237 2234 2204 0
-2235 2238 0
-2205 2238 0
-2238 2235 2205 0
-2236 2239 0
-2235 -2205 2239 0
-2239 2236 2235 0
-2239 2236 2205 0
-2237 2240 0
-2236 -2205 2240 0
-2240 2237 2236 0
-2240 2237 2205 0
-2238 2241 0
-2206 2241 0
-2241 2238 2206 0
-2239 2242 0
-2238 -2206 2242 0
-2242 2239 2238 0
-2242 2239 2206 0
-2240 2243 0
-2239 -2206 2243 0
-2243 2240 2239 0
-2243 2240 2206 0
-2241 2244 0
-2207 2244 0
-2244 2241 2207 0
-2242 2245 0
-2241 -2207 2245 0
-2245 2242 2241 0
-2245 2242 2207 0
-2243 2246 0
-2242 -2207 2246 0
-2246 2243 2242 0
-2246 2243 2207 0
2246 0
-2247 15 0
-2247 71 0
2247 -15 -71 0
-2248 16 0
-2248 72 0
2248 -16 -72 0
-2249 17 0
-2249 73 0
2249 -17 -73 0
-2250 18 0
-2250 74 0
2250 -18 -74 0
-2251 19 0
-2251 75 0
2251 -19 -75 0
-2252 20 0
-2252 76 0
2252 -20 -76 0
-2253 21 0
-2253 77 0
2253 -21 -77 0
-2254 22 0
-2254 78 0
2254 -22 -78 0
-2255 23 0
-2255 79 0
2255 -23 -79 0
-2256 24 0
-2256 80 0
2256 -24 -80 0
-2257 25 0
-2257 81 0
2257 -25 -81 0
-2258 26 0
-2258 82 0
2258 -26 -82 0
-2259 27 0
-2259 83 0
2259 -27 -83 0
-2260 28 0
-2260 84 0
2260 -28 -84 0
-2247 2261 0
-2261 2247 0
-2261 2262 0
-2248 2262 0
-2262 2261 2248 0
-2261 -2248 2263 0
-2263 2261 0
-2263 2248 0
-2262 2264 0
-2249 2264 0
-2264 2262 2249 0
-2263 2265 0
-2262 -2249 2265 0
-2265 2263 2262 0
-2265 2263 2249 0
-2263 -2249 2266 0
-2266 2263 0
-2266 2249 0
-2264 2267 0
-2250 2267 0
-2267 2264 2250 0
-2265 2268 0
-2264 -2250 2268 0
-2268 2265 2264 0
-2268 2265 2250 0
-2266 2269 0
-2265 -2250 2269 0
-2269 2266 2265 0
-2269 2266 2250 0
-2267 2270 0
-2251 2270 0
-2270 2267 2251 0
-2268 2271 0
-2267 -2251 2271 0
-2271 2268 2267 0
-2271 2268 2251 0
-2269 2272 0
-2268 -2251 2272 0
-2272 2269 2268 0
-2272 2269 2251 0
-2270 2273 0
-2252 2273 0
-2273 2270 2252 0
-2271 2274 0
-2270 -2252 2274 0
-2274 2271 2270 0
-2274 2271 2252 0
-2272 2275 0
-2271 -2252 2275 0
-2275 2272 2271 0
-2275 2272 2252 0
-2273 2276 0
-2253 2276 0
-2276 2273 2253 0
-2274 2277 0
-2273 -2253 2277 0
-2277 2274 2273 0
-2277 2274 2253 0
-2275 2278 0
-2274 -2253 2278 0
-2278 2275 2274 0
-2278 2275 2253 0
-2276 2279 0
-2254 2279 0
-2279 2276 2254 0
-2277 2280 0
-2276 -2254 2280 0
-2280 2277 2276 0
-2280 2277 2254 0
-2278 2281 0
-2277 -2254 2281 0
-2281 2278 2277 0
-2281 2278 2254 0
-2279 2282 0
-2255 2282 0
-2282 2279 2255 0
-2280 2283 0
-2279 -2255 2283 0
-2283 2280 2279 0
-2283 2280 2255 0
-2281 2284 0
-2280 -2255 2284 0
-2284 2281 2280 0
-2284 2281 2255 0
-2282 2285 0
-2256 2285 0
-2285 2282 2256 0
-2283 2286 0
-2282 -2256 2286 0
-2286 2283 2282 0
-2286 2283 2256 0
-2284 2287 0
-2283 -2256 2287 0
-2287 2284 2283 0
-2287 2284 2256 0
-2285 2288 0
-2257 2288 0
-2288 2285 2257 0
-2286 2289 0
-2285 -2257 2289 0
-2289 2286 2285 0
-2289 2286 2257 0
-2287 2290 0
-2286 -2257 2290 0
-2290 2287 2286 0
-2290 2287 2257 0
-2288 2291 0
-2258 2291 0
-2291 2288 2258 0
-2289 2292 0
-2288 -2258 2292 0
-2292 2289 2288 0
-2292 2289 2258 0
-2290 2293 0
-2289 -2258 2293 0
-2293 2290 2289 0
-2293 2290 2258 0
-2291 2294 0
-2259 2294 0
-2294 2291 2259 0
-2292 2295 0
-2291 -2259 2295 0
-2295 2292 2291 0
-2295 2292 2259 0
-2293 2296 0
-2292 -2259 2296 0
-2296 2293 2292 0
-2296 2293 2259 0
-2294 2297 0
-2260 2297 0
-2297 2294 2260 0
-2295 2298 0
-2294 -2260 2298 0
-2298 2295 2294 0
-2298 2295 2260 0
-2296 2299 0
-2295 -2260 2299 0
-2299 2296 2295 0
-2299 2296 2260 0
2299 0
-2300 15 0
-2300 85 0
2300 -15 -85 0
-2301 16 0
-2301 86 0
2301 -16 -86 0
-2302 17 0
-2302 87 0
2302 -17 -87 0
-2303 18 0
-2303 88 0
2303 -18 -88 0
-2304 19 0
-2304 89 0
2304 -19 -89 0
-2305 20 0
-2305 90 0
2305 -20 -90 0
-2306 21 0
-2306 91 0
2306 -21 -91 0
-2307 22 0
-2307 92 0
2307 -22 -92 0
-2308 23 0
-2308 93 0
2308 -23 -93 0
-2309 24 0
-2309 94 0
2309 -24 -94 0
-2310 25 0
-2310 95 0
2310 -25 -95 0
-2311 26 0
-2311 96 0
2311 -26 -96 0
-2312 27 0
-2312 97 0
2312 -27 -97 0
-2313 28 0
-2313 98 0
2313 -28 -98 0
-2300 2314 0
-2314 2300 0
-2314 2315 0
-2301 2315 0
-2315 2314 2301 0
-2314 -2301 2316 0
-2316 2314 0
-2316 2301 0
-2315 2317 0
-2302 2317 0
-2317 2315 2302 0
-2316 2318 0
-2315 -2302 2318 0
-2318 2316 2315 0
-2318 2316 2302 0
-2316 -2302 2319 0
-2319 2316 0
-2319 2302 0
-2317 2320 0
-2303 2320 0
-2320 2317 2303 0
-2318 2321 0
-2317 -2303 2321 0
-2321 2318 2317 0
-2321 2318 2303 0
-2319 2322 0
-2318 -2303 2322 0
-2322 2319 2318 0
-2322 2319 2303 0
-2320 2323 0
-2304 2323 0
-2323 2320 2304 0
-2321 2324 0
-2320 -2304 2324 0
-2324 2321 2320 0
-2324 2321 2304 0
-2322 2325 0
-2321 -2304 2325 0
-2325 2322 2321 0
-2325 2322 2304 0
-2323 2326 0
-2305 2326 0
-2326 2323 2305 0
-2324 2327 0
-2323 -2305 2327 0
-2327 2324 2323 0
-2327 2324 2305 0
-2325 2328 0
-2324 -2305 2328 0
-2328 2325 2324 0
-2328 2325 2305 0
-2326 2329 0
-2306 2329 0
-2329 2326 2306 0
-2327 2330 0
-2326 -2306 2330 0
-2330 2327 2326 0
-2330 2327 2306 0
-2328 2331 0
-2327 -2306 2331 0
-2331 2328 2327 0
-2331 2328 2306 0
-2329 2332 0
-2307 2332 0
-2332 2329 2307 0
-2330 2333 0
-2329 -2307 2333 0
-2333 2330 2329 0
-2333 2330 2307 0
-2331 2334 0
-2330 -2307 2334 0
-2334 2331 2330 0
-2334 2331 2307 0
-2332 2335 0
-2308 2335 0
-2335 2332 2308 0
-2333 2336 0
-2332 -2308 2336 0
-2336 2333 2332 0
-2336 2333 2308 0
-2334 2337 0
-2333 -2308 2337 0
-2337 2334 2333 0
-2337 2334 2308 0
-2335 2338 0
-2309 2338 0
-2338 2335 2309 0
-2336 2339 0
-2335 -2309 2339 0
-2339 2336 2335 0
-2339 2336 2309 0
-2337 2340 0
-2336 -2309 2340 0
-2340 2337 2336 0
-2340 2337 2309 0
-2338 2341 0
-2310 2341 0
-2341 2338 2310 0
-2339 2342 0
-2338 -2310 2342 0
-2342 2339 2338 0
-2342 2339 2310 0
-2340 2343 0
-2339 -2310 2343 0
-2343 2340 2339 0
-2343 2340 2310 0
-2341 2344 0
-2311 2344 0
-2344 2341 2311 0
-2342 2345 0
-2341 -2311 2345 0
-2345 2342 2341 0
-2345 2342 2311 0
-2343 2346 0
-2342 -2311 2346 0
-2346 2343 2342 0
-2346 2343 2311 0
-2344 2347 0
-2312 2347 0
-2347 2344 2312 0
-2345 2348 0
-2344 -2312 2348 0
-2348 2345 2344 0
-2348 2345 2312 0
-2346 2349 0
-2345 -2312 2349 0
-2349 2346 2345 0
-2349 2346 2312 0
-2347 2350 0
-2313 2350 0
-2350 2347 2313 0
-2348 2351 0
-2347 -2313 2351 0
-2351 2348 2347 0
-2351 2348 2313 0
-2349 2352 0
-2348 -2313 2352 0
-2352 2349 2348 0
-2352 2349 2313 0
2352 0
-2353 15 0
-2353 99 0
2353 -15 -99 0
-2354 16 0
-2354 100 0
2354 -16 -100 0
-2355 17 0
-2355 101 0
2355 -17 -101 0
-2356 18 0
-2356 102 0
2356 -18 -102 0
-2357 19 0
-2357 103 0
2357 -19 -103 0
-2358 20 0
-2358 104 0
2358 -20 -104 0
-2359 21 0
-2359 105 0
2359 -21 -105 0
-2360 22 0
-2360 106 0
2360 -22 -106 0
-2361 23 0
-2361 107 0
2361 -23 -107 0
-2362 24 0
-2362 108 0
2362 -24 -108 0
-2363 25 0
-2363 109 0
2363 -25 -109 0
-2364 26 0
-2364 110 0
2364 -26 -110 0
-2365 27 0
-2365 111 0
2365 -27 -111 0
-2366 28 0
-2366 112 0
2366 -28 -112 0
-2353 2367 0
-2367 2353 0
-2367 2368 0
-2354 2368 0
-2368 2367 2354 0
-2367 -2354 2369 0
-2369 2367 0
-2369 2354 0
-2368 2370 0
-2355 2370 0
-2370 2368 2355 0
-2369 2371 0
-2368 -2355 2371 0
-2371 2369 2368 0
-2371 2369 2355 0
-2369 -2355 2372 0
-2372 2369 0
-2372 2355 0
-2370 2373 0
-2356 2373 0
-2373 2370 2356 0
-2371 2374 0
-2370 -2356 2374 0
-2374 2371 2370 0
-2374 2371 2356 0
-2372 2375 0
-2371 -2356 2375 0
-2375 2372 2371 0
-2375 2372 2356 0
-2373 2376 0
-2357 2376 0
-2376 2373 2357 0
-2374 2377 0
-2373 -2357 2377 0
-2377 2374 2373 0
-2377 2374 2357 0
-2375 2378 0
-2374 -2357 2378 0
-2378 2375 2374 0
-2378 2375 2357 0
-2376 2379 0
-2358 2379 0
-2379 2376 2358 0
-2377 2380 0
-2376 -2358 2380 0
-2380 2377 2376 0
-2380 2377 2358 0
-2378 2381 0
-2377 -2358 2381 0
-2381 2378 2377 0
-2381 2378 2358 0
-2379 2382 0
-2359 2382 0
-2382 2379 2359 0
-2380 2383 0
-2379 -2359 2383 0
-2383 2380 2379 0
-2383 2380 2359 0
-2381 2384 0
-2380 -2359 2384 0
-2384 2381 2380 0
-2384 2381 2359 0
-2382 2385 0
-2360 2385 0
-2385 2382 2360 0
-2383 2386 0
-2382 -2360 2386 0
-2386 2383 2382 0
-2386 2383 2360 0
-2384 2387 0
-2383 -2360 2387 0
-2387 2384 2383 0
-2387 2384 2360 0
-2385 2388 0
-2361 2388 0
-2388 2385 2361 0
-2386 2389 0
-2385 -2361 2389 0
-2389 2386 2385 0
-2389 2386 2361 0
-2387 2390 0
-2386 -2361 2390 0
-2390 2387 2386 0
-2390 2387 2361 0
-2388 2391 0
-2362 2391 0
-2391 2388 2362 0
-2389 2392 0
-2388 -2362 2392 0
-2392 2389 2388 0
-2392 2389 2362 0
-2390 2393 0
-2389 -2362 2393 0
-2393 2390 2389 0
-2393 2390 2362 0
-2391 2394 0
-2363 2394 0
-2394 2391 2363 0
-2392 2395 0
-2391 -2363 2395 0
-2395 2392 2391 0
-2395 2392 2363 0
-2393 2396 0
-2392 -2363 2396 0
-2396 2393 2392 0
-2396 2393 2363 0
-2394 2397 0
-2364 2397 0
-2397 2394 2364 0
-2395 2398 0
-2394 -2364 2398 0
-2398 2395 2394 0
-2398 2395 2364 0
-2396 2399 0
-2395 -2364 2399 0
-2399 2396 2395 0
-2399 2396 2364 0
-2397 2400 0
-2365 2400 0
-2400 2397 2365 0
-2398 2401 0
-2397 -2365 2401 0
-2401 2398 2397 0
-2401 2398 2365 0
-2399 2402 0
-2398 -2365 2402 0
-2402 2399 2398 0
-2402 2399 2365 0
-2400 2403 0
-2366 2403 0
-2403 2400 2366 0
-2401 2404 0
-2400 -2366 2404 0
-2404 2401 2400 0
-2404 2401 2366 0
-2402 2405 0
-2401 -2366 2405 0
-2405 2402 2401 0
-2405 2402 2366 0
2405 0
-2406 15 0
-2406 113 0
2406 -15 -113 0
-2407 16 0
-2407 114 0
2407 -16 -114 0
-2408 17 0
-2408 115 0
2408 -17 -115 0
-2409 18 0
-2409 116 0
2409 -18 -116 0
-2410 19 0
-2410 117 0
2410 -19 -117 0
-2411 20 0
-2411 118 0
2411 -20 -118 0
-2412 21 0
-2412 119 0
2412 -21 -119 0
-2413 22 0
-2413 120 0
2413 -22 -120 0
-2414 23 0
-2414 121 0
2414 -23 -121 0
-2415 24 0
-2415 122 0
2415 -24 -122 0
-2416 25 0
-2416 123 0
2416 -25 -123 0
-2417 26 0
-2417 124 0
2417 -26 -124 0
-2418 27 0
-2418 125 0
2418 -27 -125 0
-2419 28 0
-2419 126 0
2419 -28 -126 0
-2406 2420 0
-2420 2406 0
-2420 2421 0
-2407 2421 0
-2421 2420 2407 0
-2420 -2407 2422 0
-2422 2420 0
-2422 2407 0
-2421 2423 0
-2408 2423 0
-2423 2421 2408 0
-2422 2424 0
-2421 -2408 2424 0
-2424 2422 2421 0
-2424 2422 2408 0
-2422 -2408 2425 0
-2425 2422 0
-2425 2408 0
-2423 2426 0
-2409 2426 0
-2426 2423 2409 0
-2424 2427 0
-2423 -2409 2427 0
-2427 2424 2423 0
-2427 2424 2409 0
-2425 2428 0
-2424 -2409 2428 0
-2428 2425 2424 0
-2428 2425 2409 0
-2426 2429 0
-2410 2429 0
-2429 2426 2410 0
-2427 2430 0
-2426 -2410 2430 0
-2430 2427 2426 0
-2430 2427 2410 0
-2428 2431 0
-2427 -2410 2431 0
-2431 2428 2427 0
-2431 2428 2410 0
-2429 2432 0
-2411 2432 0
-2432 2429 2411 0
-2430 2433 0
-2429 -2411 2433 0
-2433 2430 2429 0
-2433 2430 2411 0
-2431 2434 0
-2430 -2411 2434 0
-2434 2431 2430 0
-2434 2431 2411 0
-2432 2435 0
-2412 2435 0
-2435 2432 2412 0
-2433 2436 0
-2432 -2412 2436 0
-2436 2433 2432 0
-2436 2433 2412 0
-2434 2437 0
-2433 -2412 2437 0
-2437 2434 2433 0
-2437 2434 2412 0
-2435 2438 0
-2413 2438 0
-2438 2435 2413 0
-2436 2439 0
-2435 -2413 2439 0
-2439 2436 2435 0
-2439 2436 2413 0
-2437 2440 0
-2436 -2413 2440 0
-2440 2437 2436 0
-2440 2437 2413 0
-2438 2441 0
-2414 2441 0
-2441 2438 2414 0
-2439 2442 0
-2438 -2414 2442 0
-2442 2439 2438 0
-2442 2439 2414 0
-2440 2443 0
-2439 -2414 2443 0
-2443 2440 2439 0
-2443 2440 2414 0
-2441 2444 0
-2415 2444 0
-2444 2441 2415 0
-2442 2445 0
-2441 -2415 2445 0
-2445 2442 2441 0
-2445 2442 2415 0
-2443 2446 0
-2442 -2415 2446 0
-2446 2443 2442 0
-2446 2443 2415 0
-2444 2447 0
-2416 2447 0
-2447 2444 2416 0
-2445 2448 0
-2444 -2416 2448 0
-2448 2445 2444 0
-2448 2445 2416 0
-2446 2449 0
-2445 -2416 2449 0
-2449 2446 2445 0
-2449 2446 2416 0
-2447 2450 0
-2417 2450 0
-2450 2447 2417 0
-2448 2451 0
-2447 -2417 2451 0
-2451 2448 2447 0
-2451 2448 2417 0
-2449 2452 0
-2448 -2417 2452 0
-2452 2449 2448 0
-2452 2449 2417 0
-2450 2453 0
-2418 2453 0
-2453 2450 2418 0
-2451 2454 0
-2450 -2418 2454 0
-2454 2451 2450 0
-2454 2451 2418 0
-2452 2455 0
-2451 -2418 2455 0
-2455 2452 2451 0
-2455 2452 2418 0
-2453 2456 0
-2419 2456 0
-2456 2453 2419 0
-2454 2457 0
-2453 -2419 2457 0
-2457 2454 2453 0
-2457 2454 2419 0
-2455 2458 0
-2454 -2419 2458 0
-2458 2455 2454 0
-2458 2455 2419 0
2458 0
-2459 15 0
-2459 127 0
2459 -15 -127 0
-2460 16 0
-2460 128 0
2460 -16 -128 0
-2461 17 0
-2461 129 0
2461 -17 -129 0
-2462 18 0
-2462 130 0
2462 -18 -130 0
-2463 19 0
-2463 131 0
2463 -19 -131 0
-2464 20 0
-2464 132 0
2464 -20 -132 0
-2465 21 0
-2465 133 0
2465 -21 -133 0
-2466 22 0
-2466 134 0
2466 -22 -134 0
-2467 23 0
-2467 135 0
2467 -23 -135 0
-2468 24 0
-2468 136 0
2468 -24 -136 0
-2469 25 0
-2469 137 0
2469 -25 -137 0
-2470 26 0
-2470 138 0
2470 -26 -138 0
-2471 27 0
-2471 139 0
2471 -27 -139 0
-2472 28 0
-2472 140 0
2472 -28 -140 0
-2459 2473 0
-2473 2459 0
-2473 2474 0
-2460 2474 0
-2474 2473 2460 0
-2473 -2460 2475 0
-2475 2473 0
-2475 2460 0
-2474 2476 0
-2461 2476 0
-2476 2474 2461 0
-2475 2477 0
-2474 -2461 2477 0
-2477 2475 2474 0
-2477 2475 2461 0
-2475 -2461 2478 0
-2478 2475 0
-2478 2461 0
-2476 2479 0
-2462 2479 0
-2479 2476 2462 0
-2477 2480 0
-2476 -2462 2480 0
-2480 2477 2476 0
-2480 2477 2462 0
-2478 2481 0
-2477 -2462 2481 0
-2481 2478 2477 0
-2481 2478 2462 0
-2479 2482 0
-2463 2482 0
-2482 2479 2463 0
-2480 2483 0
-2479 -2463 2483 0
-2483 2480 2479 0
-2483 2480 2463 0
-2481 2484 0
-2480 -2463 2484 0
-2484 2481 2480 0
-2484 2481 2463 0
-2482 2485 0
-2464 2485 0
-2485 2482 2464 0
-2483 2486 0
-2482 -2464 2486 0
-2486 2483 2482 0
-2486 2483 2464 0
-2484 2487 0
-2483 -2464 2487 0
-2487 2484 2483 0
-2487 2484 2464 0
-2485 2488 0
-2465 2488 0
-2488 2485 2465 0
-2486 2489 0
-2485 -2465 2489 0
-2489 2486 2485 0
-2489 2486 2465 0
-2487 2490 0
-2486 -2465 2490 0
-2490 2487 2486 0
-2490 2487 2465 0
-2488 2491 0
-2466 2491 0
-2491 2488 2466 0
-2489 2492 0
-2488 -2466 2492 0
-2492 2489 2488 0
-2492 2489 2466 0
-2490 2493 0
-2489 -2466 2493 0
-2493 2490 2489 0
-2493 2490 2466 0
-2491 2494 0
-2467 2494 0
-2494 2491 2467 0
-2492 2495 0
-2491 -2467 2495 0
-2495 2492 2491 0
-2495 2492 2467 0
-2493 2496 0
-2492 -2467 2496 0
-2496 2493 2492 0
-2496 2493 2467 0
-2494 2497 0
-2468 2497 0
-2497 2494 2468 0
-2495 2498 0
-2494 -2468 2498 0
-2498 2495 2494 0
-2498 2495 2468 0
-2496 2499 0
-2495 -2468 2499 0
-2499 2496 2495 0
-2499 2496 2468 0
-2497 2500 0
-2469 2500 0
-2500 2497 2469 0
-2498 2501 0
-2497 -2469 2501 0
-2501 2498 2497 0
-2501 2498 2469 0
-2499 2502 0
-2498 -2469 2502 0
-2502 2499 2498 0
-2502 2499 2469 0
-2500 2503 0
-2470 2503 0
-2503 2500 2470 0
-2501 2504 0
-2500 -2470 2504 0
-2504 2501 2500 0
-2504 2501 2470 0
-2502 2505 0
-2501 -2470 2505 0
-2505 2502 2501 0
-2505 2502 2470 0
-2503 2506 0
-2471 2506 0
-2506 2503 2471 0
-2504 2507 0
-2503 -2471 2507 0
-2507 2504 2503 0
-2507 2504 2471 0
-2505 2508 0
-2504 -2471 2508 0
-2508 2505 2504 0
-2508 2505 2471 0
-2506 2509 0
-2472 2509 0
-2509 2506 2472 0
-2507 2510 0
-2506 -2472 2510 0
-2510 2507 2506 0
-2510 2507 2472 0
-2508 2511 0
-2507 -2472 2511 0
-2511 2508 2507 0
-2511 2508 2472 0
2511 0
-2512 29 0
-2512 43 0
2512 -29 -43 0
-2513 30 0
-2513 44 0
2513 -30 -44 0
-2514 31 0
-2514 45 0
2514 -31 -45 0
-2515 32 0
-2515 46 0
2515 -32 -46 0
-2516 33 0
-2516 47 0
2516 -33 -47 0
-2517 34 0
-2517 48 0
2517 -34 -48 0
-2518 35 0
-2518 49 0
2518 -35 -49 0
-2519 36 0
-2519 50 0
2519 -36 -50 0
-2520 37 0
-2520 51 0
2520 -37 -51 0
-2521 38 0
-2521 52 0
2521 -38 -52 0
-2522 39 0
-2522 53 0
2522 -39 -53 0
-2523 40 0
-2523 54 0
2523 -40 -54 0
-2524 41 0
-2524 55 0
2524 -41 -55 0
-2525 42 0
-2525 56 0
2525 -42 -56 0
-2512 2526 0
-2526 2512 0
-2526 2527 0
-2513 2527 0
-2527 2526 2513 0
-2526 -2513 2528 0
-2528 2526 0
-2528 2513 0
-2527 2529 0
-2514 2529 0
-2529 2527 2514 0
-2528 2530 0
-2527 -2514 2530 0
-2530 2528 2527 0
-2530 2528 2514 0
-2528 -2514 2531 0
-2531 2528 0
-2531 2514 0
-2529 2532 0
-2515 2532 0
-2532 2529 2515 0
-2530 2533 0
-2529 -2515 2533 0
-2533 2530 2529 0
-2533 2530 2515 0
-2531 2534 0
-2530 -2515 2534 0
-2534 2531 2530 0
-2534 2531 2515 0
-2532 2535 0
-2516 2535 0
-2535 2532 2516 0
-2533 2536 0
-2532 -2516 2536 0
-2536 2533 2532 0
-2536 2533 2516 0
-2534 2537 0
-2533 -2516 2537 0
-2537 2534 2533 0
-2537 2534 2516 0
-2535 2538 0
-2517 2538 0
-2538 2535 2517 0
-2536 2539 0
-2535 -2517 2539 0
-2539 2536 2535 0
-2539 2536 2517 0
-2537 2540 0
-2536 -2517 2540 0
-2540 2537 2536 0
-2540 2537 2517 0
-2538 2541 0
-2518 2541 0
-2541 2538 2518 0
-2539 2542 0
-2538 -2518 2542 0
-2542 2539 2538 0
-2542 2539 2518 0
-2540 2543 0
-2539 -2518 2543 0
-2543 2540 2539 0
-2543 2540 2518 0
-2541 2544 0
-2519 2544 0
-2544 2541 2519 0
-2542 2545 0
-2541 -2519 2545 0
-2545 2542 2541 0
-2545 2542 2519 0
-2543 2546 0
-2542 -2519 2546 0
-2546 2543 2542 0
-2546 2543 2519 0
-2544 2547 0
-2520 2547 0
-2547 2544 2520 0
-2545 2548 0
-2544 -2520 2548 0
-2548 2545 2544 0
-2548 2545 2520 0
-2546 2549 0
-2545 -2520 2549 0
-2549 2546 2545 0
-2549 2546 2520 0
-2547 2550 0
-2521 2550 0
-2550 2547 2521 0
-2548 2551 0
-2547 -2521 2551 0
-2551 2548 2547 0
-2551 2548 2521 0
-2549 2552 0
-2548 -2521 2552 0
-2552 2549 2548 0
-2552 2549 2521 0
-2550 2553 0
-2522 2553 0
-2553 2550 2522 0
-2551 2554 0
-2550 -2522 2554 0
-2554 2551 2550 0
-2554 2551 2522 0
-2552 2555 0
-2551 -2522 2555 0
-2555 2552 2551 0
-2555 2552 2522 0
-2553 2556 0
-2523 2556 0
-2556 2553 2523 0
-2554 2557 0
-2553 -2523 2557 0
-2557 2554 2553 0
-2557 2554 2523 0
-2555 2558 0
-2554 -2523 2558 0
-2558 2555 2554 0
-2558 2555 2523 0
-2556 2559 0
-2524 2559 0
-2559 2556 2524 0
-2557 2560 0
-2556 -2524 2560 0
-2560 2557 2556 0
-2560 2557 2524 0
-2558 2561 0
-2557 -2524 2561 0
-2561 2558 2557 0
-2561 2558 2524 0
-2559 2562 0
-2525 2562 0
-2562 2559 2525 0
-2560 2563 0
-2559 -2525 2563 0
-2563 2560 2559 0
-2563 2560 2525 0
-2561 2564 0
-2560 -2525 2564 0
-2564 2561 2560 0
-2564 2561 2525 0
2564 0
-2565 29 0
-2565 57 0
2565 -29 -57 0
-2566 30 0
-2566 58 0
2566 -30 -58 0
-2567 31 0
-2567 59 0
2567 -31 -59 0
-2568 32 0
-2568 60 0
2568 -32 -60 0
-2569 33 0
-2569 61 0
2569 -33 -61 0
-2570 34 0
-2570 62 0
2570 -34 -62 0
-2571 35 0
-2571 63 0
2571 -35 -63 0
-2572 36 0
-2572 64 0
2572 -36 -64 0
-2573 37 0
-2573 65 0
2573 -37 -65 0
-2574 38 0
-2574 66 0
2574 -38 -66 0
-2575 39 0
-2575 67 0
2575 -39 -67 0
-2576 40 0
-2576 68 0
2576 -40 -68 0
-2577 41 0
-2577 69 0
2577 -41 -69 0
-2578 42 0
-2578 70 0
2578 -42 -70 0
-2565 2579 0
-2579 2565 0
-2579 2580 0
-2566 2580 0
-2580 2579 2566 0
-2579 -2566 2581 0
-2581 2579 0
-2581 2566 0
-2580 2582 0
-2567 2582 0
-2582 2580 2567 0
-2581 2583 0
-2580 -2567 2583 0
-2583 2581 2580 0
-2583 2581 2567 0
-2581 -2567 2584 0
-2584 2581 0
-2584 2567 0
-2582 2585 0
-2568 2585 0
-2585 2582 2568 0
-2583 2586 0
-2582 -2568 2586 0
-2586 2583 2582 0
-2586 2583 2568 0
-2584 2587 0
-2583 -2568 2587 0
-2587 2584 2583 0
-2587 2584 2568 0
-2585 2588 0
-2569 2588 0
-2588 2585 2569 0
-2586 2589 0
-2585 -2569 2589 0
-2589 2586 2585 0
-2589 2586 2569 0
-2587 2590 0
-2586 -2569 2590 0
-2590 2587 2586 0
-2590 2587 2569 0
-2588 2591 0
-2570 2591 0
-2591 2588 2570 0
-2589 2592 0
-2588 -2570 2592 0
-2592 2589 2588 0
-2592 2589 2570 0
-2590 2593 0
-2589 -2570 2593 0
-2593 2590 2589 0
-2593 2590 2570 0
-2591 2594 0
-2571 2594 0
-2594 2591 2571 0
-2592 2595 0
-2591 -2571 2595 0
-2595 2592 2591 0
-2595 2592 2571 0
-2593 2596 0
-2592 -2571 2596 0
-2596 2593 2592 0
-2596 2593 2571 0
-2594 2597 0
-2572 2597 0
-2597 2594 2572 0
-2595 2598 0
-2594 -2572 2598 0
-2598 2595 2594 0
-2598 2595 2572 0
-2596 2599 0
-2595 -2572 2599 0
-2599 2596 2595 0
-2599 2596 2572 0
-2597 2600 0
-2573 2600 0
-2600 2597 2573 0
-2598 2601 0
-2597 -2573 2601 0
-2601 2598 2597 0
-2601 2598 2573 0
-2599 2602 0
-2598 -2573 2602 0
-2602 2599 2598 0
-2602 2599 2573 0
-2600 2603 0
-2574 2603 0
-2603 2600 2574 0
-2601 2604 0
-2600 -2574 2604 0
-2604 2601 2600 0
-2604 2601 2574 0
-2602 2605 0
-2601 -2574 2605 0
-2605 2602 2601 0
-2605 2602 2574 0
-2603 2606 0
-2575 2606 0
-2606 2603 2575 0
-2604 2607 0
-2603 -2575 2607 0
-2607 2604 2603 0
-2607 2604 2575 0
-2605 2608 0
-2604 -2575 2608 0
-2608 2605 2604 0
-2608 2605 2575 0
-2606 2609 0
-2576 2609 0
-2609 2606 2576 0
-2607 2610 0
-2606 -2576 2610 0
-2610 2607 2606 0
-2610 2607 2576 0
-2608 2611 0
-2607 -2576 2611 0
-2611 2608 2607 0
-2611 2608 2576 0
-2609 2612 0
-2577 2612 0
-2612 2609 2577 0
-2610 2613 0
-2609 -2577 2613 0
-2613 2610 2609 0
-2613 2610 2577 0
-2611 2614 0
-2610 -2577 2614 0
-2614 2611 2610 0
-2614 2611 2577 0
-2612 2615 0
-2578 2615 0
-2615 2612 2578 0
-2613 2616 0
-2612 -2578 2616 0
-2616 2613 2612 0
-2616 2613 2578 0
-2614 2617 0
-2613 -2578 2617 0
-2617 2614 2613 0
-2617 2614 2578 0
2617 0
-2618 29 0
-2618 71 0
2618 -29 -71 0
-2619 30 0
-2619 72 0
2619 -30 -72 0
-2620 31 0
-2620 73 0
2620 -31 -73 0
-2621 32 0
-2621 74 0
2621 -32 -74 0
-2622 33 0
-2622 75 0
2622 -33 -75 0
-2623 34 0
-2623 76 0
2623 -34 -76 0
-2624 35 0
-2624 77 0
2624 -35 -77 0
-2625 36 0
-2625 78 0
2625 -36 -78 0
-2626 37 0
-2626 79 0
2626 -37 -79 0
-2627 38 0
-2627 80 0
2627 -38 -80 0
-2628 39 0
-2628 81 0
2628 -39 -81 0
-2629 40 0
-2629 82 0
2629 -40 -82 0
-2630 41 0
-2630 83 0
2630 -41 -83 0
-2631 42 0
-2631 84 0
2631 -42 -84 0
-2618 2632 0
-2632 2618 0
-2632 2633 0
-2619 2633 0
-2633 2632 2619 0
-2632 -2619 2634 0
-2634 2632 0
-2634 2619 0
-2633 2635 0
-2620 2635 0
-2635 2633 2620 0
-2634 2636 0
-2633 -2620 2636 0
-2636 2634 2633 0
-2636 2634 2620 0
-2634 -2620 2637 0
-2637 2634 0
-2637 2620 0
-2635 2638 0
-2621 2638 0
-2638 2635 2621 0
-2636 2639 0
-2635 -2621 2639 0
-2639 2636 2635 0
-2639 2636 2621 0
-2637 2640 0
-2636 -2621 2640 0
-2640 2637 2636 0
-2640 2637 2621 0
-2638 2641 0
-2622 2641 0
-2641 2638 2622 0
-2639 2642 0
-2638 -2622 2642 0
-2642 2639 2638 0
-2642 2639 2622 0
-2640 2643 0
-2639 -2622 2643 0
-2643 2640 2639 0
-2643 2640 2622 0
-2641 2644 0
-2623 2644 0
-2644 2641 2623 0
-2642 2645 0
-2641 -2623 2645 0
-2645 2642 2641 0
-2645 2642 2623 0
-2643 2646 0
-2642 -2623 2646 0
-2646 2643 2642 0
-2646 2643 2623 0
-2644 2647 0
-2624 2647 0
-2647 2644 2624 0
-2645 2648 0
-2644 -2624 2648 0
-2648 2645 2644 0
-2648 2645 2624 0
-2646 2649 0
-2645 -2624 2649 0
-2649 2646 2645 0
-2649 2646 2624 0
-2647 2650 0
-2625 2650 0
-2650 2647 2625 0
-2648 2651 0
-2647 -2625 2651 0
-2651 2648 2647 0
-2651 2648 2625 0
-2649 2652 0
-2648 -2625 2652 0
-2652 2649 2648 0
-2652 2649 2625 0
-2650 2653 0
-2626 2653 0
-2653 2650 2626 0
-2651 2654 0
-2650 -2626 2654 0
-2654 2651 2650 0
-2654 2651 2626 0
-2652 2655 0
-2651 -2626 2655 0
-2655 2652 2651 0
-2655 2652 2626 0
-2653 2656 0
-2627 2656 0
-2656 2653 2627 0
-2654 2657 0
-2653 -2627 2657 0
-2657 2654 2653 0
-2657 2654 2627 0
-2655 2658 0
-2654 -2627 2658 0
-2658 2655 2654 0
-2658 2655 2627 0
-2656 2659 0
-2628 2659 0
-2659 2656 2628 0
-2657 2660 0
-2656 -2628 2660 0
-2660 2657 2656 0
-2660 2657 2628 0
-2658 2661 0
-2657 -2628 2661 0
-2661 2658 2657 0
-2661 2658 2628 0
-2659 2662 0
-2629 2662 0
-2662 2659 2629 0
-2660 2663 0
-2659 -2629 2663 0
-2663 2660 2659 0
-2663 2660 2629 0
-2661 2664 0
-2660 -2629 2664 0
-2664 2661 2660 0
-2664 2661 2629 0
-2662 2665 0
-2630 2665 0
-2665 2662 2630 0
-2663 2666 0
-2662 -2630 2666 0
-2666 2663 2662 0
-2666 2663 2630 0
-2664 2667 0
-2663 -2630 2667 0
-2667 2664 2663 0
-2667 2664 2630 0
-2665 2668 0
-2631 2668 0
-2668 2665 2631 0
-2666 2669 0
-2665 -2631 2669 0
-2669 2666 2665 0
-2669 2666 2631 0
-2667 2670 0
-2666 -2631 2670 0
-2670 2667 2666 0
-2670 2667 2631 0
2670 0
-2671 29 0
-2671 85 0
2671 -29 -85 0
-2672 30 0
-2672 86 0
2672 -30 -86 0
-2673 31 0
-2673 87 0
2673 -31 -87 0
-2674 32 0
-2674 88 0
2674 -32 -88 0
-2675 33 0
-2675 89 0
2675 -33 -89 0
-2676 34 0
-2676 90 0
2676 -34 -90 0
-2677 35 0
-2677 91 0
2677 -35 -91 0
-2678 36 0
-2678 92 0
2678 -36 -92 0
-2679 37 0
-2679 93 0
2679 -37 -93 0
-2680 38 0
-2680 94 0
2680 -38 -94 0
-2681 39 0
-2681 95 0
2681 -39 -95 0
-2682 40 0
-2682 96 0
2682 -40 -96 0
-2683 41 0
-2683 97 0
2683 -41 -97 0
-2684 42 0
-2684 98 0
2684 -42 -98 0
-2671 2685 0
-2685 2671 0
-2685 2686 0
-2672 2686 0
-2686 2685 2672 0
-2685 -2672 2687 0
-2687 2685 0
-2687 2672 0
-2686 2688 0
-2673 2688 0
-2688 2686 2673 0
-2687 2689 0
-2686 -2673 2689 0
-2689 2687 2686 0
-2689 2687 2673 0
-2687 -2673 2690 0
-2690 2687 0
-2690 2673 0
-2688 2691 0
-2674 2691 0
-2691 2688 2674 0
-2689 2692 0
-2688 -2674 2692 0
-2692 2689 2688 0
-2692 2689 2674 0
-2690 2693 0
-2689 -2674 2693 0
-2693 2690 2689 0
-2693 2690 2674 0
-2691 2694 0
-2675 2694 0
-2694 2691 2675 0
-2692 2695 0
-2691 -2675 2695 0
-2695 2692 2691 0
-2695 2692 2675 0
-2693 2696 0
-2692 -2675 2696 0
-2696 2693 2692 0
-2696 2693 2675 0
-2694 2697 0
-2676 2697 0
-2697 2694 2676 0
-2695 2698 0
-2694 -2676 2698 0
-2698 2695 2694 0
-2698 2695 2676 0
-2696 2699 0
-2695 -2676 2699 0
-2699 2696 2695 0
-2699 2696 2676 0
-2697 2700 0
-2677 2700 0
-2700 2697 2677 0
-2698 2701 0
-2697 -2677 2701 0
-2701 2698 2697 0
-2701 2698 2677 0
-2699 2702 0
-2698 -2677 2702 0
-2702 2699 2698 0
-2702 2699 2677 0
-2700 2703 0
-2678 2703 0
-2703 2700 2678 0
-2701 2704 0
-2700 -2678 2704 0
-2704 2701 2700 0
-2704 2701 2678 0
-2702 2705 0
-2701 -2678 2705 0
-2705 2702 2701 0
-2705 2702 2678 0
-2703 2706 0
-2679 2706 0
-2706 2703 2679 0
-2704 2707 0
-2703 -2679 2707 0
-2707 2704 2703 0
-2707 2704 2679 0
-2705 2708 0
-2704 -2679 2708 0
-2708 2705 2704 0
-2708 2705 2679 0
-2706 2709 0
-2680 2709 0
-2709 2706 2680 0
-2707 2710 0
-2706 -2680 2710 0
-2710 2707 2706 0
-2710 2707 2680 0
-2708 2711 0
-2707 -2680 2711 0
-2711 2708 2707 0
-2711 2708 2680 0
-2709 2712 0
-2681 2712 0
-2712 2709 2681 0
-2710 2713 0
-2709 -2681 2713 0
-2713 2710 2709 0
-2713 2710 2681 0
-2711 2714 0
-2710 -2681 2714 0
-2714 2711 2710 0
-2714 2711 2681 0
-2712 2715 0
-2682 2715 0
-2715 2712 2682 0
-2713 2716 0
-2712 -2682 2716 0
-2716 2713 2712 0
-2716 2713 2682 0
-2714 2717 0
-2713 -2682 2717 0
-2717 2714 2713 0
-2717 2714 2682 0
-2715 2718 0
-2683 2718 0
-2718 2715 2683 0
-2716 2719 0
-2715 -2683 2719 0
-2719 2716 2715 0
-2719 2716 2683 0
-2717 2720 0
-2716 -2683 2720 0
-2720 2717 2716 0
-2720 2717 2683 0
-2718 2721 0
-2684 2721 0
-2721 2718 2684 0
-2719 2722 0
-2718 -2684 2722 0
-2722 2719 2718 0
-2722 2719 2684 0
-2720 2723 0
-2719 -2684 2723 0
-2723 2720 2719 0
-2723 2720 2684 0
2723 0
-2724 29 0
-2724 99 0
2724 -29 -99 0
-2725 30 0
-2725 100 0
2725 -30 -100 0
-2726 31 0
-2726 101 0
2726 -31 -101 0
-2727 32 0
-2727 102 0
2727 -32 -102 0
-2728 33 0
-2728 103 0
2728 -33 -103 0
-2729 34 0
-2729 104 0
2729 -34 -104 0
-2730 35 0
-2730 105 0
2730 -35 -105 0
-2731 36 0
-2731 106 0
2731 -36 -106 0
-2732 37 0
-2732 107 0
2732 -37 -107 0
-2733 38 0
-2733 108 0
2733 -38 -108 0
-2734 39 0
-2734 109 0
2734 -39 -109 0
-2735 40 0
-2735 110 0
2735 -40 -110 0
-2736 41 0
-2736 111 0
2736 -41 -111 0
-2737 42 0
-2737 112 0
2737 -42 -112 0
-2724 2738 0
-2738 2724 0
-2738 2739 0
-2725 2739 0
-2739 2738 2725 0
-2738 -2725 2740 0
-2740 2738 0
-2740 2725 0
-2739 2741 0
-2726 2741 0
-2741 2739 2726 0
-2740 2742 0
-2739 -2726 2742 0
-2742 2740 2739 0
-2742 2740 2726 0
-2740 -2726 2743 0
-2743 2740 0
-2743 2726 0
-2741 2744 0
-2727 2744 0
-2744 2741 2727 0
-2742 2745 0
-2741 -2727 2745 0
-2745 2742 2741 0
-2745 2742 2727 0
-2743 2746 0
-2742 -2727 2746 0
-2746 2743 2742 0
-2746 2743 2727 0
-2744 2747 0
-2728 2747 0
-2747 2744 2728 0
-2745 2748 0
-2744 -2728 2748 0
-2748 2745 2744 0
-2748 2745 2728 0
-2746 2749 0
-2745 -2728 2749 0
-2749 2746 2745 0
-2749 2746 2728 0
-2747 2750 0
-2729 2750 0
-2750 2747 2729 0
-2748 2751 0
-2747 -2729 2751 0
-2751 2748 2747 0
-2751 2748 2729 0
-2749 2752 0
-2748 -2729 2752 0
-2752 2749 2748 0
-2752 2749 2729 0
-2750 2753 0
-2730 2753 0
-2753 2750 2730 0
-2751 2754 0
-2750 -2730 2754 0
-2754 2751 2750 0
-2754 2751 2730 0
-2752 2755 0
-2751 -2730 2755 0
-2755 2752 2751 0
-2755 2752 2730 0
-2753 2756 0
-2731 2756 0
-2756 2753 2731 0
-2754 2757 0
-2753 -2731 2757 0
-2757 2754 2753 0
-2757 2754 2731 0
-2755 2758 0
-2754 -2731 2758 0
-2758 2755 2754 0
-2758 2755 2731 0
-2756 2759 0
-2732 2759 0
-2759 2756 2732 0
-2757 2760 0
-2756 -2732 2760 0
-2760 2757 2756 0
-2760 2757 2732 0
-2758 2761 0
-2757 -2732 2761 0
-2761 2758 2757 0
-2761 2758 2732 0
-2759 2762 0
-2733 2762 0
-2762 2759 2733 0
-2760 2763 0
-2759 -2733 2763 0
-2763 2760 2759 0
-2763 2760 2733 0
-2761 2764 0
-2760 -2733 2764 0
-2764 2761 2760 0
-2764 2761 2733 0
-2762 2765 0
-2734 2765 0
-2765 2762 2734 0
-2763 2766 0
-2762 -2734 2766 0
-2766 2763 2762 0
-2766 2763 2734 0
-2764 2767 0
-2763 -2734 2767 0
-2767 2764 2763 0
-2767 2764 2734 0
-2765 2768 0
-2735 2768 0
-2768 2765 2735 0
-2766 2769 0
-2765 -2735 2769 0
-2769 2766 2765 0
-2769 2766 2735 0
-2767 2770 0
-2766 -2735 2770 0
-2770 2767 2766 0
-2770 2767 2735 0
-2768 2771 0
-2736 2771 0
-2771 2768 2736 0
-2769 2772 0
-2768 -2736 2772 0
-2772 2769 2768 0
-2772 2769 2736 0
-2770 2773 0
-2769 -2736 2773 0
-2773 2770 2769 0
-2773 2770 2736 0
-2771 2774 0
-2737 2774 0
-2774 2771 2737 0
-2772 2775 0
-2771 -2737 2775 0
-2775 2772 2771 0
-2775 2772 2737 0
-2773 2776 0
-2772 -2737 2776 0
-2776 2773 2772 0
-2776 2773 2737 0
2776 0
-2777 29 0
-2777 113 0
2777 -29 -113 0
-2778 30 0
-2778 114 0
2778 -30 -114 0
-2779 31 0
-2779 115 0
2779 -31 -115 0
-2780 32 0
-2780 116 0
2780 -32 -116 0
-2781 33 0
-2781 117 0
2781 -33 -117 0
-2782 34 0
-2782 118 0
2782 -34 -118 0
-2783 35 0
-2783 119 0
2783 -35 -119 0
-2784 36 0
-2784 120 0
2784 -36 -120 0
-2785 37 0
-2785 121 0
2785 -37 -121 0
-2786 38 0
-2786 122 0
2786 -38 -122 0
-2787 39 0
-2787 123 0
2787 -39 -123 0
-2788 40 0
-2788 124 0
2788 -40 -124 0
-2789 41 0
-2789 125 0
2789 -41 -125 0
-2790 42 0
-2790 126 0
2790 -42 -126 0
-2777 2791 0
-2791 2777 0
-2791 2792 0
-2778 2792 0
-2792 2791 2778 0
-2791 -2778 2793 0
-2793 2791 0
-2793 2778 0
-2792 2794 0
-2779 2794 0
-2794 2792 2779 0
-2793 2795 0
-2792 -2779 2795 0
-2795 2793 2792 0
-2795 2793 2779 0
-2793 -2779 2796 0
-2796 2793 0
-2796 2779 0
-2794 2797 0
-2780 2797 0
-2797 2794 2780 0
-2795 2798 0
-2794 -2780 2798 0
-2798 2795 2794 0
-2798 2795 2780 0
-2796 2799 0
-2795 -2780 2799 0
-2799 2796 2795 0
-2799 2796 2780 0
-2797 2800 0
-2781 2800 0
-2800 2797 2781 0
-2798 2801 0
-2797 -2781 2801 0
-2801 2798 2797 0
-2801 2798 2781 0
-2799 2802 0
-2798 -2781 2802 0
-2802 2799 2798 0
-2802 2799 2781 0
-2800 2803 0
-2782 2803 0
-2803 2800 2782 0
-2801 2804 0
-2800 -2782 2804 0
-2804 2801 2800 0
-2804 2801 2782 0
-2802 2805 0
-2801 -2782 2805 0
-2805 2802 2801 0
-2805 2802 2782 0
-2803 2806 0
-2783 2806 0
-2806 2803 2783 0
-2804 2807 0
-2803 -2783 2807 0
-2807 2804 2803 0
-2807 2804 2783 0
-2805 2808 0
-2804 -2783 2808 0
-2808 2805 2804 0
-2808 2805 2783 0
-2806 2809 0
-2784 2809 0
-2809 2806 2784 0
-2807 2810 0
-2806 -2784 2810 0
-2810 2807 2806 0
-2810 2807 2784 0
-2808 2811 0
-2807 -2784 2811 0
-2811 2808 2807 0
-2811 2808 2784 0
-2809 2812 0
-2785 2812 0
-2812 2809 2785 0
-2810 2813 0
-2809 -2785 2813 0
-2813 2810 2809 0
-2813 2810 2785 0
-2811 2814 0
-2810 -2785 2814 0
-2814 2811 2810 0
-2814 2811 2785 0
-2812 2815 0
-2786 2815 0
-2815 2812 2786 0
-2813 2816 0
-2812 -2786 2816 0
-2816 2813 2812 0
-2816 2813 2786 0
-2814 2817 0
-2813 -2786 2817 0
-2817 2814 2813 0
-2817 2814 2786 0
-2815 2818 0
-2787 2818 0
-2818 2815 2787 0
-2816 2819 0
-2815 -2787 2819 0
-2819 2816 2815 0
-2819 2816 2787 0
-2817 2820 0
-2816 -2787 2820 0
-2820 2817 2816 0
-2820 2817 2787 0
-2818 2821 0
-2788 2821 0
-2821 2818 2788 0
-2819 2822 0
-2818 -2788 2822 0
-2822 2819 2818 0
-2822 2819 2788 0
-2820 2823 0
-2819 -2788 2823 0
-2823 2820 2819 0
-2823 2820 2788 0
-2821 2824 0
-2789 2824 0
-2824 2821 2789 0
-2822 2825 0
-2821 -2789 2825 0
-2825 2822 2821 0
-2825 2822 2789 0
-2823 2826 0
-2822 -2789 2826 0
-2826 2823 2822 0
-2826 2823 2789 0
-2824 2827 0
-2790 2827 0
-2827 2824 2790 0
-2825 2828 0
-2824 -2790 2828 0
-2828 2825 2824 0
-2828 2825 2790 0
-2826 2829 0
-2825 -2790 2829 0
-2829 2826 2825 0
-2829 2826 2790 0
2829 0
-2830 29 0
-2830 127 0
2830 -29 -127 0
-2831 30 0
-2831 128 0
2831 -30 -128 0
-2832 31 0
-2832 129 0
2832 -31 -129 0
-2833 32 0
-2833 130 0
2833 -32 -130 0
-2834 33 0
-2834 131 0
2834 -33 -131 0
-2835 34 0
-2835 132 0
2835 -34 -132 0
-2836 35 0
-2836 133 0
2836 -35 -133 0
-2837 36 0
-2837 134 0
2837 -36 -134 0
-2838 37 0
-2838 135 0
2838 -37 -135 0
-2839 38 0
-2839 136 0
2839 -38 -136 0
-2840 39 0
-2840 137 0
2840 -39 -137 0
-2841 40 0
-2841 138 0
2841 -40 -138 0
-2842 41 0
-2842 139 0
2842 -41 -139 0
-2843 42 0
-2843 140 0
2843 -42 -140 0
-2830 2844 0
-2844 2830 0
-2844 2845 0
-2831 2845 0
-2845 2844 2831 0
-2844 -2831 2846 0
-2846 2844 0
-2846 2831 0
-2845 2847 0
-2832 2847 0
-2847 2845 2832 0
-2846 2848 0
-2845 -2832 2848 0
-2848 2846 2845 0
-2848 2846 2832 0
-2846 -2832 2849 0
-2849 2846 0
-2849 2832 0
-2847 2850 0
-2833 2850 0
-2850 2847 2833 0
-2848 2851 0
-2847 -2833 2851 0
-2851 2848 2847 0
-2851 2848 2833 0
-2849 2852 0
-2848 -2833 2852 0
-2852 2849 2848 0
-2852 2849 2833 0
-2850 2853 0
-2834 2853 0
-2853 2850 2834 0
-2851 2854 0
-2850 -2834 2854 0
-2854 2851 2850 0
-2854 2851 2834 0
-2852 2855 0
-2851 -2834 2855 0
-2855 2852 2851 0
-2855 2852 2834 0
-2853 2856 0
-2835 2856 0
-2856 2853 2835 0
-2854 2857 0
-2853 -2835 2857 0
-2857 2854 2853 0
-2857 2854 2835 0
-2855 2858 0
-2854 -2835 2858 0
-2858 2855 2854 0
-2858 2855 2835 0
-2856 2859 0
-2836 2859 0
-2859 2856 2836 0
-2857 2860 0
-2856 -2836 2860 0
-2860 2857 2856 0
-2860 2857 2836 0
-2858 2861 0
-2857 -2836 2861 0
-2861 2858 2857 0
-2861 2858 2836 0
-2859 2862 0
-2837 2862 0
-2862 2859 2837 0
-2860 2863 0
-2859 -2837 2863 0
-2863 2860 2859 0
-2863 2860 2837 0
-2861 2864 0
-2860 -2837 2864 0
-2864 2861 2860 0
-2864 2861 2837 0
-2862 2865 0
-2838 2865 0
-2865 2862 2838 0
-2863 2866 0
-2862 -2838 2866 0
-2866 2863 2862 0
-2866 2863 2838 0
-2864 2867 0
-2863 -2838 2867 0
-2867 2864 2863 0
-2867 2864 2838 0
-2865 2868 0
-2839 2868 0
-2868 2865 2839 0
-2866 2869 0
-2865 -2839 2869 0
-2869 2866 2865 0
-2869 2866 2839 0
-2867 2870 0
-2866 -2839 2870 0
-2870 2867 2866 0
-2870 2867 2839 0
-2868 2871 0
-2840 2871 0
-2871 2868 2840 0
-2869 2872 0
-2868 -2840 2872 0
-2872 2869 2868 0
-2872 2869 2840 0
-2870 2873 0
-2869 -2840 2873 0
-2873 2870 2869 0
-2873 2870 2840 0
-2871 2874 0
-2841 2874 0
-2874 2871 2841 0
-2872 2875 0
-2871 -2841 2875 0
-2875 2872 2871 0
-2875 2872 2841 0
-2873 2876 0
-2872 -2841 2876 0
-2876 2873 2872 0
-2876 2873 2841 0
-2874 2877 0
-2842 2877 0
-2877 2874 2842 0
-2875 2878 0
-2874 -2842 2878 0
-2878 2875 2874 0
-2878 2875 2842 0
-2876 2879 0
-2875 -2842 2879 0
-2879 2876 2875 0
-2879 2876 2842 0
-2877 2880 0
-2843 2880 0
-2880 2877 2843 0
-2878 2881 0
-2877 -2843 2881 0
-2881 2878 2877 0
-2881 2878 2843 0
-2879 2882 0
-2878 -2843 2882 0
-2882 2879 2878 0
-2882 2879 2843 0
2882 0
-2883 43 0
-2883 57 0
2883 -43 -57 0
-2884 44 0
-2884 58 0
2884 -44 -58 0
-2885 45 0
-2885 59 0
2885 -45 -59 0
-2886 46 0
-2886 60 0
2886 -46 -60 0
-2887 47 0
-2887 61 0
2887 -47 -61 0
-2888 48 0
-2888 62 0
2888 -48 -62 0
-2889 49 0
-2889 63 0
2889 -49 -63 0
-2890 50 0
-2890 64 0
2890 -50 -64 0
-2891 51 0
-2891 65 0
2891 -51 -65 0
-2892 52 0
-2892 66 0
2892 -52 -66 0
-2893 53 0
-2893 67 0
2893 -53 -67 0
-2894 54 0
-2894 68 0
2894 -54 -68 0
-2895 55 0
-2895 69 0
2895 -55 -69 0
-2896 56 0
-2896 70 0
2896 -56 -70 0
-2883 2897 0
-2897 2883 0
-2897 2898 0
-2884 2898 0
-2898 2897 2884 0
-2897 -2884 2899 0
-2899 2897 0
-2899 2884 0
-2898 2900 0
-2885 2900 0
-2900 2898 2885 0
-2899 2901 0
-2898 -2885 2901 0
-2901 2899 2898 0
-2901 2899 2885 0
-2899 -2885 2902 0
-2902 2899 0
-2902 2885 0
-2900 2903 0
-2886 2903 0
-2903 2900 2886 0
-2901 2904 0
-2900 -2886 2904 0
-2904 2901 2900 0
-2904 2901 2886 0
-2902 2905 0
-2901 -2886 2905 0
-2905 2902 2901 0
-2905 2902 2886 0
-2903 2906 0
-2887 2906 0
-2906 2903 2887 0
-2904 2907 0
-2903 -2887 2907 0
-2907 2904 2903 0
-2907 2904 2887 0
-2905 2908 0
-2904 -2887 2908 0
-2908 2905 2904 0
-2908 2905 2887 0
-2906 2909 0
-2888 2909 0
-2909 2906 2888 0
-2907 2910 0
-2906 -2888 2910 0
-2910 2907 2906 0
-2910 2907 2888 0
-2908 2911 0
-2907 -2888 2911 0
-2911 2908 2907 0
-2911 2908 2888 0
-2909 2912 0
-2889 2912 0
-2912 2909 2889 0
-2910 2913 0
-2909 -2889 2913 0
-2913 2910 2909 0
-2913 2910 2889 0
-2911 2914 0
-2910 -2889 2914 0
-2914 2911 2910 0
-2914 2911 2889 0
-2912 2915 0
-2890 2915 0
-2915 2912 2890 0
-2913 2916 0
-2912 -2890 2916 0
-2916 2913 2912 0
-2916 2913 2890 0
-2914 2917 0
-2913 -2890 2917 0
-2917 2914 2913 0
-2917 2914 2890 0
-2915 2918 0
-2891 2918 0
-2918 2915 2891 0
-2916 2919 0
-2915 -2891 2919 0
-2919 2916 2915 0
-2919 2916 2891 0
-2917 2920 0
-2916 -2891 2920 0
-2920 2917 2916 0
-2920 2917 2891 0
-2918 2921 0
-2892 2921 0
-2921 2918 2892 0
-2919 2922 0
-2918 -2892 2922 0
-2922 2919 2918 0
-2922 2919 2892 0
-2920 2923 0
-2919 -2892 2923 0
-2923 2920 2919 0
-2923 2920 2892 0
-2921 2924 0
-2893 2924 0
-2924 2921 2893 0
-2922 2925 0
-2921 -2893 2925 0
-2925 2922 2921 0
-2925 2922 2893 0
-2923 2926 0
-2922 -2893 2926 0
-2926 2923 2922 0
-2926 2923 2893 0
-2924 2927 0
-2894 2927 0
-2927 2924 2894 0
-2925 2928 0
-2924 -2894 2928 0
-2928 2925 2924 0
-2928 2925 2894 0
-2926 2929 0
-2925 -2894 2929 0
-2929 2926 2925 0
-2929 2926 2894 0
-2927 2930 0
-2895 2930 0
-2930 2927 2895 0
-2928 2931 0
-2927 -2895 2931 0
-2931 2928 2927 0
-2931 2928 2895 0
-2929 2932 0
-2928 -2895 2932 0
-2932 2929 2928 0
-2932 2929 2895 0
-2930 2933 0
-2896 2933 0
-2933 2930 2896 0
-2931 2934 0
-2930 -2896 2934 0
-2934 2931 2930 0
-2934 2931 2896 0
-2932 2935 0
-2931 -2896 2935 0
-2935 2932 2931 0
-2935 2932 2896 0
2935 0
-2936 43 0
-2936 71 0
2936 -43 -71 0
-2937 44 0
-2937 72 0
2937 -44 -72 0
-2938 45 0
-2938 73 0
2938 -45 -73 0
-2939 46 0
-2939 74 0
2939 -46 -74 0
-2940 47 0
-2940 75 0
2940 -47 -75 0
-2941 48 0
-2941 76 0
2941 -48 -76 0
-2942 49 0
-2942 77 0
2942 -49 -77 0
-2943 50 0
-2943 78 0
2943 -50 -78 0
-2944 51 0
-2944 79 0
2944 -51 -79 0
-2945 52 0
-2945 80 0
2945 -52 -80 0
-2946 53 0
-2946 81 0
2946 -53 -81 0
-2947 54 0
-2947 82 0
2947 -54 -82 0
-2948 55 0
-2948 83 0
2948 -55 -83 0
-2949 56 0
-2949 84 0
2949 -56 -84 0
-2936 2950 0
-2950 2936 0
-2950 2951 0
-2937 2951 0
-2951 2950 2937 0
-2950 -2937 2952 0
-2952 2950 0
-2952 2937 0
-2951 2953 0
-2938 2953 0
-2953 2951 2938 0
-2952 2954 0
-2951 -2938 2954 0
-2954 2952 2951 0
-2954 2952 2938 0
-2952 -2938 2955 0
-2955 2952 0
-2955 2938 0
-2953 2956 0
-2939 2956 0
-2956 2953 2939 0
-2954 2957 0
-2953 -2939 2957 0
-2957 2954 2953 0
-2957 2954 2939 0
-2955 2958 0
-2954 -2939 2958 0
-2958 2955 2954 0
-2958 2955 2939 0
-2956 2959 0
-2940 2959 0
-2959 2956 2940 0
-2957 2960 0
-2956 -2940 2960 0
-2960 2957 2956 0
-2960 2957 2940 0
-2958 2961 0
-2957 -2940 2961 0
-2961 2958 2957 0
-2961 2958 2940 0
-2959 2962 0
-2941 2962 0
-2962 2959 2941 0
-2960 2963 0
-2959 -2941 2963 0
-2963 2960 2959 0
-2963 2960 2941 0
-2961 2964 0
-2960 -2941 2964 0
-2964 2961 2960 0
-2964 2961 2941 0
-2962 2965 0
-2942 2965 0
-2965 2962 2942 0
-2963 2966 0
-2962 -2942 2966 0
-2966 2963 2962 0
-2966 2963 2942 0
-2964 2967 0
-2963 -2942 2967 0
-2967 2964 2963 0
-2967 2964 2942 0
-2965 2968 0
-2943 2968 0
-2968 2965 2943 0
-2966 2969 0
-2965 -2943 2969 0
-2969 2966 2965 0
-2969 2966 2943 0
-2967 2970 0
-2966 -2943 2970 0
-2970 2967 2966 0
-2970 2967 2943 0
-2968 2971 0
-2944 2971 0
-2971 2968 2944 0
-2969 2972 0
-2968 -2944 2972 0
-2972 2969 2968 0
-2972 2969 2944 0
-2970 2973 0
-2969 -2944 2973 0
-2973 2970 2969 0
-2973 2970 2944 0
-2971 2974 0
-2945 2974 0
-2974 2971 2945 0
-2972 2975 0
-2971 -2945 2975 0
-2975 2972 2971 0
-2975 2972 2945 0
-2973 2976 0
-2972 -2945 2976 0
-2976 2973 2972 0
-2976 2973 2945 0
-2974 2977 0
-2946 2977 0
-2977 2974 2946 0
-2975 2978 0
-2974 -2946 2978 0
-2978 2975 2974 0
-2978 2975 2946 0
-2976 2979 0
-2975 -2946 2979 0
-2979 2976 2975 0
-2979 2976 2946 0
-2977 2980 0
-2947 2980 0
-2980 2977 2947 0
-2978 2981 0
-2977 -2947 2981 0
-2981 2978 2977 0
-2981 2978 2947 0
-2979 2982 0
-2978 -2947 2982 0
-2982 2979 2978 0
-2982 2979 2947 0
-2980 2983 0
-2948 2983 0
-2983 2980 2948 0
-2981 2984 0
-2980 -2948 2984 0
-2984 2981 2980 0
-2984 2981 2948 0
-2982 2985 0
-2981 -2948 2985 0
-2985 2982 2981 0
-2985 2982 2948 0
-2983 2986 0
-2949 2986 0
-2986 2983 2949 0
-2984 2987 0
-2983 -2949 2987 0
-2987 2984 2983 0
-2987 2984 2949 0
-2985 2988 0
-2984 -2949 2988 0
-2988 2985 2984 0
-2988 2985 2949 0
2988 0
-2989 43 0
-2989 85 0
2989 -43 -85 0
-2990 44 0
-2990 86 0
2990 -44 -86 0
-2991 45 0
-2991 87 0
2991 -45 -87 0
-2992 46 0
-2992 88 0
2992 -46 -88 0
-2993 47 0
-2993 89 0
2993 -47 -89 0
-2994 48 0
-2994 90 0
2994 -48 -90 0
-2995 49 0
-2995 91 0
2995 -49 -91 0
-2996 50 0
-2996 92 0
2996 -50 -92 0
-2997 51 0
-2997 93 0
2997 -51 -93 0
-2998 52 0
-2998 94 0
2998 -52 -94 0
-2999 53 0
-2999 95 0
2999 -53 -95 0
-3000 54 0
-3000 96 0
3000 -54 -96 0
-3001 55 0
-3001 97 0
3001 -55 -97 0
-3002 56 0
-3002 98 0
3002 -56 -98 0
-2989 3003 0
-3003 2989 0
-3003 3004 0
-2990 3004 0
-3004 3003 2990 0
-3003 -2990 3005 0
-3005 3003 0
-3005 2990 0
-3004 3006 0
-2991 3006 0
-3006 3004 2991 0
-3005 3007 0
-3004 -2991 3007 0
-3007 3005 3004 0
-3007 3005 2991 0
-3005 -2991 3008 0
-3008 3005 0
-3008 2991 0
-3006 3009 0
-2992 3009 0
-3009 3006 2992 0
-3007 3010 0
-3006 -2992 3010 0
-3010 3007 3006 0
-3010 3007 2992 0
-3008 3011 0
-3007 -2992 3011 0
-3011 3008 3007 0
-3011 3008 2992 0
-3009 3012 0
-2993 3012 0
-3012 3009 2993 0
-3010 3013 0
-3009 -2993 3013 0
-3013 3010 3009 0
-3013 3010 2993 0
-3011 3014 0
-3010 -2993 3014 0
-3014 3011 3010 0
-3014 3011 2993 0
-3012 3015 0
-2994 3015 0
-3015 3012 2994 0
-3013 3016 0
-3012 -2994 3016 0
-3016 3013 3012 0
-3016 3013 2994 0
-3014 3017 0
-3013 -2994 3017 0
-3017 3014 3013 0
-3017 3014 2994 0
-3015 3018 0
-2995 3018 0
-3018 3015 2995 0
-3016 3019 0
-3015 -2995 3019 0
-3019 3016 3015 0
-3019 3016 2995 0
-3017 3020 0
-3016 -2995 3020 0
-3020 3017 3016 0
-3020 3017 2995 0
-3018 3021 0
-2996 3021 0
-3021 3018 2996 0
-3019 3022 0
-3018 -2996 3022 0
-3022 3019 3018 0
-3022 3019 2996 0
-3020 3023 0
-3019 -2996 3023 0
-3023 3020 3019 0
-3023 3020 2996 0
-3021 3024 0
-2997 3024 0
-3024 3021 2997 0
-3022 3025 0
-3021 -2997 3025 0
-3025 3022 3021 0
-3025 3022 2997 0
-3023 3026 0
-3022 -2997 3026 0
-3026 3023 3022 0
-3026 3023 2997 0
-3024 3027 0
-2998 3027 0
-3027 3024 2998 0
-3025 3028 0
-3024 -2998 3028 0
-3028 3025 3024 0
-3028 3025 2998 0
-3026 3029 0
-3025 -2998 3029 0
-3029 3026 3025 0
-3029 3026 2998 0
-3027 3030 0
-2999 3030 0
-3030 3027 2999 0
-3028 3031 0
-3027 -2999 3031 0
-3031 3028 3027 0
-3031 3028 2999 0
-3029 3032 0
-3028 -2999 3032 0
-3032 3029 3028 0
-3032 3029 2999 0
-3030 3033 0
-3000 3033 0
-3033 3030 3000 0
-3031 3034 0
-3030 -3000 3034 0
-3034 3031 3030 0
-3034 3031 3000 0
-3032 3035 0
-3031 -3000 3035 0
-3035 3032 3031 0
-3035 3032 3000 0
-3033 3036 0
-3001 3036 0
-3036 3033 3001 0
-3034 3037 0
-3033 -3001 3037 0
-3037 3034 3033 0
-3037 3034 3001 0
-3035 3038 0
-3034 -3001 3038 0
-3038 3035 3034 0
-3038 3035 3001 0
-3036 3039 0
-3002 3039 0
-3039 3036 3002 0
-3037 3040 0
-3036 -3002 3040 0
-3040 3037 3036 0
-3040 3037 3002 0
-3038 3041 0
-3037 -3002 3041 0
-3041 3038 3037 0
-3041 3038 3002 0
3041 0
-3042 43 0
-3042 99 0
3042 -43 -99 0
-3043 44 0
-3043 100 0
3043 -44 -100 0
-3044 45 0
-3044 101 0
3044 -45 -101 0
-3045 46 0
-3045 102 0
3045 -46 -102 0
-3046 47 0
-3046 103 0
3046 -47 -103 0
-3047 48 0
-3047 104 0
3047 -48 -104 0
-3048 49 0
-3048 105 0
3048 -49 -105 0
-3049 50 0
-3049 106 0
3049 -50 -106 0
-3050 51 0
-3050 107 0
3050 -51 -107 0
-3051 52 0
-3051 108 0
3051 -52 -108 0
-3052 53 0
-3052 109 0
3052 -53 -109 0
-3053 54 0
-3053 110 0
3053 -54 -110 0
-3054 55 0
-3054 111 0
3054 -55 -111 0
-3055 56 0
-3055 112 0
3055 -56 -112 0
-3042 3056 0
-3056 3042 0
-3056 3057 0
-3043 3057 0
-3057 3056 3043 0
-3056 -3043 3058 0
-3058 3056 0
-3058 3043 0
-3057 3059 0
-3044 3059 0
-3059 3057 3044 0
-3058 3060 0
-3057 -3044 3060 0
-3060 3058 3057 0
-3060 3058 3044 0
-3058 -3044 3061 0
-3061 3058 0
-3061 3044 0
-3059 3062 0
-3045 3062 0
-3062 3059 3045 0
-3060 3063 0
-3059 -3045 3063 0
-3063 3060 3059 0
-3063 3060 3045 0
-3061 3064 0
-3060 -3045 3064 0
-3064 3061 3060 0
-3064 3061 3045 0
-3062 3065 0
-3046 3065 0
-3065 3062 3046 0
-3063 3066 0
-3062 -3046 3066 0
-3066 3063 3062 0
-3066 3063 3046 0
-3064 3067 0
-3063 -3046 3067 0
-3067 3064 3063 0
-3067 3064 3046 0
-3065 3068 0
-3047 3068 0
-3068 3065 3047 0
-3066 3069 0
-3065 -3047 3069 0
-3069 3066 3065 0
-3069 3066 3047 0
-3067 3070 0
-3066 -3047 3070 0
-3070 3067 3066 0
-3070 3067 3047 0
-3068 3071 0
-3048 3071 0
-3071 3068 3048 0
-3069 3072 0
-3068 -3048 3072 0
-3072 3069 3068 0
-3072 3069 3048 0
-3070 3073 0
-3069 -3048 3073 0
-3073 3070 3069 0
-3073 3070 3048 0
-3071 3074 0
-3049 3074 0
-3074 3071 3049 0
-3072 3075 0
-3071 -3049 3075 0
-3075 3072 3071 0
-3075 3072 3049 0
-3073 3076 0
-3072 -3049 3076 0
-3076 3073 3072 0
-3076 3073 3049 0
-3074 3077 0
-3050 3077 0
-3077 3074 3050 0
-3075 3078 0
-3074 -3050 3078 0
-3078 3075 3074 0
-3078 3075 3050 0
-3076 3079 0
-3075 -3050 3079 0
-3079 3076 3075 0
-3079 3076 3050 0
-3077 3080 0
-3051 3080 0
-3080 3077 3051 0
-3078 3081 0
-3077 -3051 3081 0
-3081 3078 3077 0
-3081 3078 3051 0
-3079 3082 0
-3078 -3051 3082 0
-3082 3079 3078 0
-3082 3079 3051 0
-3080 3083 0
-3052 3083 0
-3083 3080 3052 0
-3081 3084 0
-3080 -3052 3084 0
-3084 3081 3080 0
-3084 3081 3052 0
-3082 3085 0
-3081 -3052 3085 0
-3085 3082 3081 0
-3085 3082 3052 0
-3083 3086 0
-3053 3086 0
-3086 3083 3053 0
-3084 3087 0
-3083 -3053 3087 0
-3087 3084 3083 0
-3087 3084 3053 0
-3085 3088 0
-3084 -3053 3088 0
-3088 3085 3084 0
-3088 3085 3053 0
-3086 3089 0
-3054 3089 0
-3089 3086 3054 0
-3087 3090 0
-3086 -3054 3090 0
-3090 3087 3086 0
-3090 3087 3054 0
-3088 3091 0
-3087 -3054 3091 0
-3091 3088 3087 0
-3091 3088 3054 0
-3089 3092 0
-3055 3092 0
-3092 3089 3055 0
-3090 3093 0
-3089 -3055 3093 0
-3093 3090 3089 0
-3093 3090 3055 0
-3091 3094 0
-3090 -3055 3094 0
-3094 3091 3090 0
-3094 3091 3055 0
3094 0
-3095 43 0
-3095 113 0
3095 -43 -113 0
-3096 44 0
-3096 114 0
3096 -44 -114 0
-3097 45 0
-3097 115 0
3097 -45 -115 0
-3098 46 0
-3098 116 0
3098 -46 -116 0
-3099 47 0
-3099 117 0
3099 -47 -117 0
-3100 48 0
-3100 118 0
3100 -48 -118 0
-3101 49 0
-3101 119 0
3101 -49 -119 0
-3102 50 0
-3102 120 0
3102 -50 -120 0
-3103 51 0
-3103 121 0
3103 -51 -121 0
-3104 52 0
-3104 122 0
3104 -52 -122 0
-3105 53 0
-3105 123 0
3105 -53 -123 0
-3106 54 0
-3106 124 0
3106 -54 -124 0
-3107 55 0
-3107 125 0
3107 -55 -125 0
-3108 56 0
-3108 126 0
3108 -56 -126 0
-3095 3109 0
-3109 3095 0
-3109 3110 0
-3096 3110 0
-3110 3109 3096 0
-3109 -3096 3111 0
-3111 3109 0
-3111 3096 0
-3110 3112 0
-3097 3112 0
-3112 3110 3097 0
-3111 3113 0
-3110 -3097 3113 0
-3113 3111 3110 0
-3113 3111 3097 0
-3111 -3097 3114 0
-3114 3111 0
-3114 3097 0
-3112 3115 0
-3098 3115 0
-3115 3112 3098 0
-3113 3116 0
-3112 -3098 3116 0
-3116 3113 3112 0
-3116 3113 3098 0
-3114 3117 0
-3113 -3098 3117 0
-3117 3114 3113 0
-3117 3114 3098 0
-3115 3118 0
-3099 3118 0
-3118 3115 3099 0
-3116 3119 0
-3115 -3099 3119 0
-3119 3116 3115 0
-3119 3116 3099 0
-3117 3120 0
-3116 -3099 3120 0
-3120 3117 3116 0
-3120 3117 3099 0
-3118 3121 0
-3100 3121 0
-3121 3118 3100 0
-3119 3122 0
-3118 -3100 3122 0
-3122 3119 3118 0
-3122 3119 3100 0
-3120 3123 0
-3119 -3100 3123 0
-3123 3120 3119 0
-3123 3120 3100 0
-3121 3124 0
-3101 3124 0
-3124 3121 3101 0
-3122 3125 0
-3121 -3101 3125 0
-3125 3122 3121 0
-3125 3122 3101 0
-3123 3126 0
-3122 -3101 3126 0
-3126 3123 3122 0
-3126 3123 3101 0
-3124 3127 0
-3102 3127 0
-3127 3124 3102 0
-3125 3128 0
-3124 -3102 3128 0
-3128 3125 3124 0
-3128 3125 3102 0
-3126 3129 0
-3125 -3102 3129 0
-3129 3126 3125 0
-3129 3126 3102 0
-3127 3130 0
-3103 3130 0
-3130 3127 3103 0
-3128 3131 0
-3127 -3103 3131 0
-3131 3128 3127 0
-3131 3128 3103 0
-3129 3132 0
-3128 -3103 3132 0
-3132 3129 3128 0
-3132 3129 3103 0
-3130 3133 0
-3104 3133 0
-3133 3130 3104 0
-3131 3134 0
-3130 -3104 3134 0
-3134 3131 3130 0
-3134 3131 3104 0
-3132 3135 0
-3131 -3104 3135 0
-3135 3132 3131 0
-3135 3132 3104 0
-3133 3136 0
-3105 3136 0
-3136 3133 3105 0
-3134 3137 0
-3133 -3105 3137 0
-3137 3134 3133 0
-3137 3134 3105 0
-3135 3138 0
-3134 -3105 3138 0
-3138 3135 3134 0
-3138 3135 3105 0
-3136 3139 0
-3106 3139 0
-3139 3136 3106 0
-3137 3140 0
-3136 -3106 3140 0
-3140 3137 3136 0
-3140 3137 3106 0
-3138 3141 0
-3137 -3106 3141 0
-3141 3138 3137 0
-3141 3138 3106 0
-3139 3142 0
-3107 3142 0
-3142 3139 3107 0
-3140 3143 0
-3139 -3107 3143 0
-3143 3140 3139 0
-3143 3140 3107 0
-3141 3144 0
-3140 -3107 3144 0
-3144 3141 3140 0
-3144 3141 3107 0
-3142 3145 0
-3108 3145 0
-3145 3142 3108 0
-3143 3146 0
-3142 -3108 3146 0
-3146 3143 3142 0
-3146 3143 3108 0
-3144 3147 0
-3143 -3108 3147 0
-3147 3144 3143 0
-3147 3144 3108 0
3147 0
-3148 43 0
-3148 127 0
3148 -43 -127 0
-3149 44 0
-3149 128 0
3149 -44 -128 0
-3150 45 0
-3150 129 0
3150 -45 -129 0
-3151 46 0
-3151 130 0
3151 -46 -130 0
-3152 47 0
-3152 131 0
3152 -47 -131 0
-3153 48 0
-3153 132 0
3153 -48 -132 0
-3154 49 0
-3154 133 0
3154 -49 -133 0
-3155 50 0
-3155 134 0
3155 -50 -134 0
-3156 51 0
-3156 135 0
3156 -51 -135 0
-3157 52 0
-3157 136 0
3157 -52 -136 0
-3158 53 0
-3158 137 0
3158 -53 -137 0
-3159 54 0
-3159 138 0
3159 -54 -138 0
-3160 55 0
-3160 139 0
3160 -55 -139 0
-3161 56 0
-3161 140 0
3161 -56 -140 0
-3148 3162 0
-3162 3148 0
-3162 3163 0
-3149 3163 0
-3163 3162 3149 0
-3162 -3149 3164 0
-3164 3162 0
-3164 3149 0
-3163 3165 0
-3150 3165 0
-3165 3163 3150 0
-3164 3166 0
-3163 -3150 3166 0
-3166 3164 3163 0
-3166 3164 3150 0
-3164 -3150 3167 0
-3167 3164 0
-3167 3150 0
-3165 3168 0
-3151 3168 0
-3168 3165 3151 0
-3166 3169 0
-3165 -3151 3169 0
-3169 3166 3165 0
-3169 3166 3151 0
-3167 3170 0
-3166 -3151 3170 0
-3170 3167 3166 0
-3170 3167 3151 0
-3168 3171 0
-3152 3171 0
-3171 3168 3152 0
-3169 3172 0
-3168 -3152 3172 0
-3172 3169 3168 0
-3172 3169 3152 0
-3170 3173 0
-3169 -3152 3173 0
-3173 3170 3169 0
-3173 3170 3152 0
-3171 3174 0
-3153 3174 0
-3174 3171 3153 0
-3172 3175 0
-3171 -3153 3175 0
-3175 3172 3171 0
-3175 3172 3153 0
-3173 3176 0
-3172 -3153 3176 0
-3176 3173 3172 0
-3176 3173 3153 0
-3174 3177 0
-3154 3177 0
-3177 3174 3154 0
-3175 3178 0
-3174 -3154 3178 0
-3178 3175 3174 0
-3178 3175 3154 0
-3176 3179 0
-3175 -3154 3179 0
-3179 3176 3175 0
-3179 3176 3154 0
-3177 3180 0
-3155 3180 0
-3180 3177 3155 0
-3178 3181 0
-3177 -3155 3181 0
-3181 3178 3177 0
-3181 3178 3155 0
-3179 3182 0
-3178 -3155 3182 0
-3182 3179 3178 0
-3182 3179 3155 0
-3180 3183 0
-3156 3183 0
-3183 3180 3156 0
-3181 3184 0
-3180 -3156 3184 0
-3184 3181 3180 0
-3184 3181 3156 0
-3182 3185 0
-3181 -3156 3185 0
-3185 3182 3181 0
-3185 3182 3156 0
-3183 3186 0
-3157 3186 0
-3186 3183 3157 0
-3184 3187 0
-3183 -3157 3187 0
-3187 3184 3183 0
-3187 3184 3157 0
-3185 3188 0
-3184 -3157 3188 0
-3188 3185 3184 0
-3188 3185 3157 0
-3186 3189 0
-3158 3189 0
-3189 3186 3158 0
-3187 3190 0
-3186 -3158 3190 0
-3190 3187 3186 0
-3190 3187 3158 0
-3188 3191 0
-3187 -3158 3191 0
-3191 3188 3187 0
-3191 3188 3158 0
-3189 3192 0
-3159 3192 0
-3192 3189 3159 0
-3190 3193 0
-3189 -3159 3193 0
-3193 3190 3189 0
-3193 3190 3159 0
-3191 3194 0
-3190 -3159 3194 0
-3194 3191 3190 0
-3194 3191 3159 0
-3192 3195 0
-3160 3195 0
-3195 3192 3160 0
-3193 3196 0
-3192 -3160 3196 0
-3196 3193 3192 0
-3196 3193 3160 0
-3194 3197 0
-3193 -3160 3197 0
-3197 3194 3193 0
-3197 3194 3160 0
-3195 3198 0
-3161 3198 0
-3198 3195 3161 0
-3196 3199 0
-3195 -3161 3199 0
-3199 3196 3195 0
-3199 3196 3161 0
-3197 3200 0
-3196 -3161 3200 0
-3200 3197 3196 0
-3200 3197 3161 0
3200 0
-3201 57 0
-3201 71 0
3201 -57 -71 0
-3202 58 0
-3202 72 0
3202 -58 -72 0
-3203 59 0
-3203 73 0
3203 -59 -73 0
-3204 60 0
-3204 74 0
3204 -60 -74 0
-3205 61 0
-3205 75 0
3205 -61 -75 0
-3206 62 0
-3206 76 0
3206 -62 -76 0
-3207 63 0
-3207 77 0
3207 -63 -77 0
-3208 64 0
-3208 78 0
3208 -64 -78 0
-3209 65 0
-3209 79 0
3209 -65 -79 0
-3210 66 0
-3210 80 0
3210 -66 -80 0
-3211 67 0
-3211 81 0
3211 -67 -81 0
-3212 68 0
-3212 82 0
3212 -68 -82 0
-3213 69 0
-3213 83 0
3213 -69 -83 0
-3214 70 0
-3214 84 0
3214 -70 -84 0
-3201 3215 0
-3215 3201 0
-3215 3216 0
-3202 3216 0
-3216 3215 3202 0
-3215 -3202 3217 0
-3217 3215 0
-3217 3202 0
-3216 3218 0
-3203 3218 0
-3218 3216 3203 0
-3217 3219 0
-3216 -3203 3219 0
-3219 3217 3216 0
-3219 3217 3203 0
-3217 -3203 3220 0
-3220 3217 0
-3220 3203 0
-3218 3221 0
-3204 3221 0
-3221 3218 3204 0
-3219 3222 0
-3218 -3204 3222 0
-3222 3219 3218 0
-3222 3219 3204 0
-3220 3223 0
-3219 -3204 3223 0
-3223 3220 3219 0
-3223 3220 3204 0
-3221 3224 0
-3205 3224 0
-3224 3221 3205 0
-3222 3225 0
-3221 -3205 3225 0
-3225 3222 3221 0
-3225 3222 3205 0
-3223 3226 0
-3222 -3205 3226 0
-3226 3223 3222 0
-3226 3223 3205 0
-3224 3227 0
-3206 3227 0
-3227 3224 3206 0
-3225 3228 0
-3224 -3206 3228 0
-3228 3225 3224 0
-3228 3225 3206 0
-3226 3229 0
-3225 -3206 3229 0
-3229 3226 3225 0
-3229 3226 3206 0
-3227 3230 0
-3207 3230 0
-3230 3227 3207 0
-3228 3231 0
-3227 -3207 3231 0
-3231 3228 3227 0
-3231 3228 3207 0
-3229 3232 0
-3228 -3207 3232 0
-3232 3229 3228 0
-3232 3229 3207 0
-3230 3233 0
-3208 3233 0
-3233 3230 3208 0
-3231 3234 0
-3230 -3208 3234 0
-3234 3231 3230 0
-3234 3231 3208 0
-3232 3235 0
-3231 -3208 3235 0
-3235 3232 3231 0
-3235 3232 3208 0
-3233 3236 0
-3209 3236 0
-3236 3233 3209 0
-3234 3237 0
-3233 -3209 3237 0
-3237 3234 3233 0
-3237 3234 3209 0
-3235 3238 0
-3234 -3209 3238 0
-3238 3235 3234 0
-3238 3235 3209 0
-3236 3239 0
-3210 3239 0
-3239 3236 3210 0
-3237 3240 0
-3236 -3210 3240 0
-3240 3237 3236 0
-3240 3237 3210 0
-3238 3241 0
-3237 -3210 3241 0
-3241 3238 3237 0
-3241 3238 3210 0
-3239 3242 0
-3211 3242 0
-3242 3239 3211 0
-3240 3243 0
-3239 -3211 3243 0
-3243 3240 3239 0
-3243 3240 3211 0
-3241 3244 0
-3240 -3211 3244 0
-3244 3241 3240 0
-3244 3241 3211 0
-3242 3245 0
-3212 3245 0
-3245 3242 3212 0
-3243 3246 0
-3242 -3212 3246 0
-3246 3243 3242 0
-3246 3243 3212 0
-3244 3247 0
-3243 -3212 3247 0
-3247 3244 3243 0
-3247 3244 3212 0
-3245 3248 0
-3213 3248 0
-3248 3245 3213 0
-3246 3249 0
-3245 -3213 3249 0
-3249 3246 3245 0
-3249 3246 3213 0
-3247 3250 0
-3246 -3213 3250 0
-3250 3247 3246 0
-3250 3247 3213 0
-3248 3251 0
-3214 3251 0
-3251 3248 3214 0
-3249 3252 0
-3248 -3214 3252 0
-3252 3249 3248 0
-3252 3249 3214 0
-3250 3253 0
-3249 -3214 3253 0
-3253 3250 3249 0
-3253 3250 3214 0
3253 0
-3254 57 0
-3254 85 0
3254 -57 -85 0
-3255 58 0
-3255 86 0
3255 -58 -86 0
-3256 59 0
-3256 87 0
3256 -59 -87 0
-3257 60 0
-3257 88 0
3257 -60 -88 0
-3258 61 0
-3258 89 0
3258 -61 -89 0
-3259 62 0
-3259 90 0
3259 -62 -90 0
-3260 63 0
-3260 91 0
3260 -63 -91 0
-3261 64 0
-3261 92 0
3261 -64 -92 0
-3262 65 0
-3262 93 0
3262 -65 -93 0
-3263 66 0
-3263 94 0
3263 -66 -94 0
-3264 67 0
-3264 95 0
3264 -67 -95 0
-3265 68 0
-3265 96 0
3265 -68 -96 0
-3266 69 0
-3266 97 0
3266 -69 -97 0
-3267 70 0
-3267 98 0
3267 -70 -98 0
-3254 3268 0
-3268 3254 0
-3268 3269 0
-3255 3269 0
-3269 3268 3255 0
-3268 -3255 3270 0
-3270 3268 0
-3270 3255 0
-3269 3271 0
-3256 3271 0
-3271 3269 3256 0
-3270 3272 0
-3269 -3256 3272 0
-3272 3270 3269 0
-3272 3270 3256 0
-3270 -3256 3273 0
-3273 3270 0
-3273 3256 0
-3271 3274 0
-3257 3274 0
-3274 3271 3257 0
-3272 3275 0
-3271 -3257 3275 0
-3275 3272 3271 0
-3275 3272 3257 0
-3273 3276 0
-3272 -3257 3276 0
-3276 3273 3272 0
-3276 3273 3257 0
-3274 3277 0
-3258 3277 0
-3277 3274 3258 0
-3275 3278 0
-3274 -3258 3278 0
-3278 3275 3274 0
-3278 3275 3258 0
-3276 3279 0
-3275 -3258 3279 0
-3279 3276 3275 0
-3279 3276 3258 0
-3277 3280 0
-3259 3280 0
-3280 3277 3259 0
-3278 3281 0
-3277 -3259 3281 0
-3281 3278 3277 0
-3281 3278 3259 0
-3279 3282 0
-3278 -3259 3282 0
-3282 3279 3278 0
-3282 3279 3259 0
-3280 3283 0
-3260 3283 0
-3283 3280 3260 0
-3281 3284 0
-3280 -3260 3284 0
-3284 3281 3280 0
-3284 3281 3260 0
-3282 3285 0
-3281 -3260 3285 0
-3285 3282 3281 0
-3285 3282 3260 0
-3283 3286 0
-3261 3286 0
-3286 3283 3261 0
-3284 3287 0
-3283 -3261 3287 0
-3287 3284 3283 0
-3287 3284 3261 0
-3285 3288 0
-3284 -3261 3288 0
-3288 3285 3284 0
-3288 3285 3261 0
-3286 3289 0
-3262 3289 0
-3289 3286 3262 0
-3287 3290 0
-3286 -3262 3290 0
-3290 3287 3286 0
-3290 3287 3262 0
-3288 3291 0
-3287 -3262 3291 0
-3291 3288 3287 0
-3291 3288 3262 0
-3289 3292 0
-3263 3292 0
-3292 3289 3263 0
-3290 3293 0
-3289 -3263 3293 0
-3293 3290 3289 0
-3293 3290 3263 0
-3291 3294 0
-3290 -3263 3294 0
-3294 3291 3290 0
-3294 3291 3263 0
-3292 3295 0
-3264 3295 0
-3295 3292 3264 0
-3293 3296 0
-3292 -3264 3296 0
-3296 3293 3292 0
-3296 3293 3264 0
-3294 3297 0
-3293 -3264 3297 0
-3297 3294 3293 0
-3297 3294 3264 0
-3295 3298 0
-3265 3298 0
-3298 3295 3265 0
-3296 3299 0
-3295 -3265 3299 0
-3299 3296 3295 0
-3299 3296 3265 0
-3297 3300 0
-3296 -3265 3300 0
-3300 3297 3296 0
-3300 3297 3265 0
-3298 3301 0
-3266 3301 0
-3301 3298 3266 0
-3299 3302 0
-3298 -3266 3302 0
-3302 3299 3298 0
-3302 3299 3266 0
-3300 3303 0
-3299 -3266 3303 0
-3303 3300 3299 0
-3303 3300 3266 0
-3301 3304 0
-3267 3304 0
-3304 3301 3267 0
-3302 3305 0
-3301 -3267 3305 0
-3305 3302 3301 0
-3305 3302 3267 0
-3303 3306 0
-3302 -3267 3306 0
-3306 3303 3302 0
-3306 3303 3267 0
3306 0
-3307 57 0
-3307 99 0
3307 -57 -99 0
-3308 58 0
-3308 100 0
3308 -58 -100 0
-3309 59 0
-3309 101 0
3309 -59 -101 0
-3310 60 0
-3310 102 0
3310 -60 -102 0
-3311 61 0
-3311 103 0
3311 -61 -103 0
-3312 62 0
-3312 104 0
3312 -62 -104 0
-3313 63 0
-3313 105 0
3313 -63 -105 0
-3314 64 0
-3314 106 0
3314 -64 -106 0
-3315 65 0
-3315 107 0
3315 -65 -107 0
-3316 66 0
-3316 108 0
3316 -66 -108 0
-3317 67 0
-3317 109 0
3317 -67 -109 0
-3318 68 0
-3318 110 0
3318 -68 -110 0
-3319 69 0
-3319 111 0
3319 -69 -111 0
-3320 70 0
-3320 112 0
3320 -70 -112 0
-3307 3321 0
-3321 3307 0
-3321 3322 0
-3308 3322 0
-3322 3321 3308 0
-3321 -3308 3323 0
-3323 3321 0
-3323 3308 0
-3322 3324 0
-3309 3324 0
-3324 3322 3309 0
-3323 3325 0
-3322 -3309 3325 0
-3325 3323 3322 0
-3325 3323 3309 0
-3323 -3309 3326 0
-3326 3323 0
-3326 3309 0
-3324 3327 0
-3310 3327 0
-3327 3324 3310 0
-3325 3328 0
-3324 -3310 3328 0
-3328 3325 3324 0
-3328 3325 3310 0
-3326 3329 0
-3325 -3310 3329 0
-3329 3326 3325 0
-3329 3326 3310 0
-3327 3330 0
-3311 3330 0
-3330 3327 3311 0
-3328 3331 0
-3327 -3311 3331 0
-3331 3328 3327 0
-3331 3328 3311 0
-3329 3332 0
-3328 -3311 3332 0
-3332 3329 3328 0
-3332 3329 3311 0
-3330 3333 0
-3312 3333 0
-3333 3330 3312 0
-3331 3334 0
-3330 -3312 3334 0
-3334 3331 3330 0
-3334 3331 3312 0
-3332 3335 0
-3331 -3312 3335 0
-3335 3332 3331 0
-3335 3332 3312 0
-3333 3336 0
-3313 3336 0
-3336 3333 3313 0
-3334 3337 0
-3333 -3313 3337 0
-3337 3334 3333 0
-3337 3334 3313 0
-3335 3338 0
-3334 -3313 3338 0
-3338 3335 3334 0
-3338 3335 3313 0
-3336 3339 0
-3314 3339 0
-3339 3336 3314 0
-3337 3340 0
-3336 -3314 3340 0
-3340 3337 3336 0
-3340 3337 3314 0
-3338 3341 0
-3337 -3314 3341 0
-3341 3338 3337 0
-3341 3338 3314 0
-3339 3342 0
-3315 3342 0
-3342 3339 3315 0
-3340 3343 0
-3339 -3315 3343 0
-3343 3340 3339 0
-3343 3340 3315 0
-3341 3344 0
-3340 -3315 3344 0
-3344 3341 3340 0
-3344 3341 3315 0
-3342 3345 0
-3316 3345 0
-3345 3342 3316 0
-3343 3346 0
-3342 -3316 3346 0
-3346 3343 3342 0
-3346 3343 3316 0
-3344 3347 0
-3343 -3316 3347 0
-3347 3344 3343 0
-3347 3344 3316 0
-3345 3348 0
-3317 3348 0
-3348 3345 3317 0
-3346 3349 0
-3345 -3317 3349 0
-3349 3346 3345 0
-3349 3346 3317 0
-3347 3350 0
-3346 -3317 3350 0
-3350 3347 3346 0
-3350 3347 3317 0
-3348 3351 0
-3318 3351 0
-3351 3348 3318 0
-3349 3352 0
-3348 -3318 3352 0
-3352 3349 3348 0
-3352 3349 3318 0
-3350 3353 0
-3349 -3318 3353 0
-3353 3350 3349 0
-3353 3350 3318 0
-3351 3354 0
-3319 3354 0
-3354 3351 3319 0
-3352 3355 0
-3351 -3319 3355 0
-3355 3352 3351 0
-3355 3352 3319 0
-3353 3356 0
-3352 -3319 3356 0
-3356 3353 3352 0
-3356 3353 3319 0
-3354 3357 0
-3320 3357 0
-3357 3354 3320 0
-3355 3358 0
-3354 -3320 3358 0
-3358 3355 3354 0
-3358 3355 3320 0
-3356 3359 0
-3355 -3320 3359 0
-3359 3356 3355 0
-3359 3356 3320 0
3359 0
-3360 57 0
-3360 113 0
3360 -57 -113 0
-3361 58 0
-3361 114 0
3361 -58 -114 0
-3362 59 0
-3362 115 0
3362 -59 -115 0
-3363 60 0
-3363 116 0
3363 -60 -116 0
-3364 61 0
-3364 117 0
3364 -61 -117 0
-3365 62 0
-3365 118 0
3365 -62 -118 0
-3366 63 0
-3366 119 0
3366 -63 -119 0
-3367 64 0
-3367 120 0
3367 -64 -120 0
-3368 65 0
-3368 121 0
3368 -65 -121 0
-3369 66 0
-3369 122 0
3369 -66 -122 0
-3370 67 0
-3370 123 0
3370 -67 -123 0
-3371 68 0
-3371 124 0
3371 -68 -124 0
-3372 69 0
-3372 125 0
3372 -69 -125 0
-3373 70 0
-3373 126 0
3373 -70 -126 0
-3360 3374 0
-3374 3360 0
-3374 3375 0
-3361 3375 0
-3375 3374 3361 0
-3374 -3361 3376 0
-3376 3374 0
-3376 3361 0
-3375 3377 0
-3362 3377 0
-3377 3375 3362 0
-3376 3378 0
-3375 -3362 3378 0
-3378 3376 3375 0
-3378 3376 3362 0
-3376 -3362 3379 0
-3379 3376 0
-3379 3362 0
-3377 3380 0
-3363 3380 0
-3380 3377 3363 0
-3378 3381 0
-3377 -3363 3381 0
-3381 3378 3377 0
-3381 3378 3363 0
-3379 3382 0
-3378 -3363 3382 0
-3382 3379 3378 0
-3382 3379 3363 0
-3380 3383 0
-3364 3383 0
-3383 3380 3364 0
-3381 3384 0
-3380 -3364 3384 0
-3384 3381 3380 0
-3384 3381 3364 0
-3382 3385 0
-3381 -3364 3385 0
-3385 3382 3381 0
-3385 3382 3364 0
-3383 3386 0
-3365 3386 0
-3386 3383 3365 0
-3384 3387 0
-3383 -3365 3387 0
-3387 3384 3383 0
-3387 3384 3365 0
-3385 3388 0
-3384 -3365 3388 0
-3388 3385 3384 0
-3388 3385 3365 0
-3386 3389 0
-3366 3389 0
-3389 3386 3366 0
-3387 3390 0
-3386 -3366 3390 0
-3390 3387 3386 0
-3390 3387 3366 0
-3388 3391 0
-3387 -3366 3391 0
-3391 3388 3387 0
-3391 3388 3366 0
-3389 3392 0
-3367 3392 0
-3392 3389 3367 0
-3390 3393 0
-3389 -3367 3393 0
-3393 3390 3389 0
-3393 3390 3367 0
-3391 3394 0
-3390 -3367 3394 0
-3394 3391 3390 0
-3394 3391 3367 0
-3392 3395 0
-3368 3395 0
-3395 3392 3368 0
-3393 3396 0
-3392 -3368 3396 0
-3396 3393 3392 0
-3396 3393 3368 0
-3394 3397 0
-3393 -3368 3397 0
-3397 3394 3393 0
-3397 3394 3368 0
-3395 3398 0
-3369 3398 0
-3398 3395 3369 0
-3396 3399 0
-3395 -3369 3399 0
-3399 3396 3395 0
-3399 3396 3369 0
-3397 3400 0
-3396 -3369 3400 0
-3400 3397 3396 0
-3400 3397 3369 0
-3398 3401 0
-3370 3401 0
-3401 3398 3370 0
-3399 3402 0
-3398 -3370 3402 0
-3402 3399 3398 0
-3402 3399 3370 0
-3400 3403 0
-3399 -3370 3403 0
-3403 3400 3399 0
-3403 3400 3370 0
-3401 3404 0
-3371 3404 0
-3404 3401 3371 0
-3402 3405 0
-3401 -3371 3405 0
-3405 3402 3401 0
-3405 3402 3371 0
-3403 3406 0
-3402 -3371 3406 0
-3406 3403 3402 0
-3406 3403 3371 0
-3404 3407 0
-3372 3407 0
-3407 3404 3372 0
-3405 3408 0
-3404 -3372 3408 0
-3408 3405 3404 0
-3408 3405 3372 0
-3406 3409 0
-3405 -3372 3409 0
-3409 3406 3405 0
-3409 3406 3372 0
-3407 3410 0
-3373 3410 0
-3410 3407 3373 0
-3408 3411 0
-3407 -3373 3411 0
-3411 3408 3407 0
-3411 3408 3373 0
-3409 3412 0
-3408 -3373 3412 0
-3412 3409 3408 0
-3412 3409 3373 0
3412 0
-3413 57 0
-3413 127 0
3413 -57 -127 0
-3414 58 0
-3414 128 0
3414 -58 -128 0
-3415 59 0
-3415 129 0
3415 -59 -129 0
-3416 60 0
-3416 130 0
3416 -60 -130 0
-3417 61 0
-3417 131 0
3417 -61 -131 0
-3418 62 0
-3418 132 0
3418 -62 -132 0
-3419 63 0
-3419 133 0
3419 -63 -133 0
-3420 64 0
-3420 134 0
3420 -64 -134 0
-3421 65 0
-3421 135 0
3421 -65 -135 0
-3422 66 0
-3422 136 0
3422 -66 -136 0
-3423 67 0
-3423 137 0
3423 -67 -137 0
-3424 68 0
-3424 138 0
3424 -68 -138 0
-3425 69 0
-3425 139 0
3425 -69 -139 0
-3426 70 0
-3426 140 0
3426 -70 -140 0
-3413 3427 0
-3427 3413 0
-3427 3428 0
-3414 3428 0
-3428 3427 3414 0
-3427 -3414 3429 0
-3429 3427 0
-3429 3414 0
-3428 3430 0
-3415 3430 0
-3430 3428 3415 0
-3429 3431 0
-3428 -3415 3431 0
-3431 3429 3428 0
-3431 3429 3415 0
-3429 -3415 3432 0
-3432 3429 0
-3432 3415 0
-3430 3433 0
-3416 3433 0
-3433 3430 3416 0
-3431 3434 0
-3430 -3416 3434 0
-3434 3431 3430 0
-3434 3431 3416 0
-3432 3435 0
-3431 -3416 3435 0
-3435 3432 3431 0
-3435 3432 3416 0
-3433 3436 0
-3417 3436 0
-3436 3433 3417 0
-3434 3437 0
-3433 -3417 3437 0
-3437 3434 3433 0
-3437 3434 3417 0
-3435 3438 0
-3434 -3417 3438 0
-3438 3435 3434 0
-3438 3435 3417 0
-3436 3439 0
-3418 3439 0
-3439 3436 3418 0
-3437 3440 0
-3436 -3418 3440 0
-3440 3437 3436 0
-3440 3437 3418 0
-3438 3441 0
-3437 -3418 3441 0
-3441 3438 3437 0
-3441 3438 3418 0
-3439 3442 0
-3419 3442 0
-3442 3439 3419 0
-3440 3443 0
-3439 -3419 3443 0
-3443 3440 3439 0
-3443 3440 3419 0
-3441 3444 0
-3440 -3419 3444 0
-3444 3441 3440 0
-3444 3441 3419 0
-3442 3445 0
-3420 3445 0
-3445 3442 3420 0
-3443 3446 0
-3442 -3420 3446 0
-3446 3443 3442 0
-3446 3443 3420 0
-3444 3447 0
-3443 -3420 3447 0
-3447 3444 3443 0
-3447 3444 3420 0
-3445 3448 0
-3421 3448 0
-3448 3445 3421 0
-3446 3449 0
-3445 -3421 3449 0
-3449 3446 3445 0
-3449 3446 3421 0
-3447 3450 0
-3446 -3421 3450 0
-3450 3447 3446 0
-3450 3447 3421 0
-3448 3451 0
-3422 3451 0
-3451 3448 3422 0
-3449 3452 0
-3448 -3422 3452 0
-3452 3449 3448 0
-3452 3449 3422 0
-3450 3453 0
-3449 -3422 3453 0
-3453 3450 3449 0
-3453 3450 3422 0
-3451 3454 0
-3423 3454 0
-3454 3451 3423 0
-3452 3455 0
-3451 -3423 3455 0
-3455 3452 3451 0
-3455 3452 3423 0
-3453 3456 0
-3452 -3423 3456 0
-3456 3453 3452 0
-3456 3453 3423 0
-3454 3457 0
-3424 3457 0
-3457 3454 3424 0
-3455 3458 0
-3454 -3424 3458 0
-3458 3455 3454 0
-3458 3455 3424 0
-3456 3459 0
-3455 -3424 3459 0
-3459 3456 3455 0
-3459 3456 3424 0
-3457 3460 0
-3425 3460 0
-3460 3457 3425 0
-3458 3461 0
-3457 -3425 3461 0
-3461 3458 3457 0
-3461 3458 3425 0
-3459 3462 0
-3458 -3425 3462 0
-3462 3459 3458 0
-3462 3459 3425 0
-3460 3463 0
-3426 3463 0
-3463 3460 3426 0
-3461 3464 0
-3460 -3426 3464 0
-3464 3461 3460 0
-3464 3461 3426 0
-3462 3465 0
-3461 -3426 3465 0
-3465 3462 3461 0
-3465 3462 3426 0
3465 0
-3466 71 0
-3466 85 0
3466 -71 -85 0
-3467 72 0
-3467 86 0
3467 -72 -86 0
-3468 73 0
-3468 87 0
3468 -73 -87 0
-3469 74 0
-3469 88 0
3469 -74 -88 0
-3470 75 0
-3470 89 0
3470 -75 -89 0
-3471 76 0
-3471 90 0
3471 -76 -90 0
-3472 77 0
-3472 91 0
3472 -77 -91 0
-3473 78 0
-3473 92 0
3473 -78 -92 0
-3474 79 0
-3474 93 0
3474 -79 -93 0
-3475 80 0
-3475 94 0
3475 -80 -94 0
-3476 81 0
-3476 95 0
3476 -81 -95 0
-3477 82 0
-3477 96 0
3477 -82 -96 0
-3478 83 0
-3478 97 0
3478 -83 -97 0
-3479 84 0
-3479 98 0
3479 -84 -98 0
-3466 3480 0
-3480 3466 0
-3480 3481 0
-3467 3481 0
-3481 3480 3467 0
-3480 -3467 3482 0
-3482 3480 0
-3482 3467 0
-3481 3483 0
-3468 3483 0
-3483 3481 3468 0
-3482 3484 0
-3481 -3468 3484 0
-3484 3482 3481 0
-3484 3482 3468 0
-3482 -3468 3485 0
-3485 3482 0
-3485 3468 0
-3483 3486 0
-3469 3486 0
-3486 3483 3469 0
-3484 3487 0
-3483 -3469 3487 0
-3487 3484 3483 0
-3487 3484 3469 0
-3485 3488 0
-3484 -3469 3488 0
-3488 3485 3484 0
-3488 3485 3469 0
-3486 3489 0
-3470 3489 0
-3489 3486 3470 0
-3487 3490 0
-3486 -3470 3490 0
-3490 3487 3486 0
-3490 3487 3470 0
-3488 3491 0
-3487 -3470 3491 0
-3491 3488 3487 0
-3491 3488 3470 0
-3489 3492 0
-3471 3492 0
-3492 3489 3471 0
-3490 3493 0
-3489 -3471 3493 0
-3493 3490 3489 0
-3493 3490 3471 0
-3491 3494 0
-3490 -3471 3494 0
-3494 3491 3490 0
-3494 3491 3471 0
-3492 3495 0
-3472 3495 0
-3495 3492 3472 0
-3493 3496 0
-3492 -3472 3496 0
-3496 3493 3492 0
-3496 3493 3472 0
-3494 3497 0
-3493 -3472 3497 0
-3497 3494 3493 0
-3497 3494 3472 0
-3495 3498 0
-3473 3498 0
-3498 3495 3473 0
-3496 3499 0
-3495 -3473 3499 0
-3499 3496 3495 0
-3499 3496 3473 0
-3497 3500 0
-3496 -3473 3500 0
-3500 3497 3496 0
-3500 3497 3473 0
-3498 3501 0
-3474 3501 0
-3501 3498 3474 0
-3499 3502 0
-3498 -3474 3502 0
-3502 3499 3498 0
-3502 3499 3474 0
-3500 3503 0
-3499 -3474 3503 0
-3503 3500 3499 0
-3503 3500 3474 0
-3501 3504 0
-3475 3504 0
-3504 3501 3475 0
-3502 3505 0
-3501 -3475 3505 0
-3505 3502 3501 0
-3505 3502 3475 0
-3503 3506 0
-3502 -3475 3506 0
-3506 3503 3502 0
-3506 3503 3475 0
-3504 3507 0
-3476 3507 0
-3507 3504 3476 0
-3505 3508 0
-3504 -3476 3508 0
-3508 3505 3504 0
-3508 3505 3476 0
-3506 3509 0
-3505 -3476 3509 0
-3509 3506 3505 0
-3509 3506 3476 0
-3507 3510 0
-3477 3510 0
-3510 3507 3477 0
-3508 3511 0
-3507 -3477 3511 0
-3511 3508 3507 0
-3511 3508 3477 0
-3509 3512 0
-3508 -3477 3512 0
-3512 3509 3508 0
-3512 3509 3477 0
-3510 3513 0
-3478 3513 0
-3513 3510 3478 0
-3511 3514 0
-3510 -3478 3514 0
-3514 3511 3510 0
-3514 3511 3478 0
-3512 3515 0
-3511 -3478 3515 0
-3515 3512 3511 0
-3515 3512 3478 0
-3513 3516 0
-3479 3516 0
-3516 3513 3479 0
-3514 3517 0
-3513 -3479 3517 0
-3517 3514 3513 0
-3517 3514 3479 0
-3515 3518 0
-3514 -3479 3518 0
-3518 3515 3514 0
-3518 3515 3479 0
3518 0
-3519 71 0
-3519 99 0
3519 -71 -99 0
-3520 72 0
-3520 100 0
3520 -72 -100 0
-3521 73 0
-3521 101 0
3521 -73 -101 0
-3522 74 0
-3522 102 0
3522 -74 -102 0
-3523 75 0
-3523 103 0
3523 -75 -103 0
-3524 76 0
-3524 104 0
3524 -76 -104 0
-3525 77 0
-3525 105 0
3525 -77 -105 0
-3526 78 0
-3526 106 0
3526 -78 -106 0
-3527 79 0
-3527 107 0
3527 -79 -107 0
-3528 80 0
-3528 108 0
3528 -80 -108 0
-3529 81 0
-3529 109 0
3529 -81 -109 0
-3530 82 0
-3530 110 0
3530 -82 -110 0
-3531 83 0
-3531 111 0
3531 -83 -111 0
-3532 84 0
-3532 112 0
3532 -84 -112 0
-3519 3533 0
-3533 3519 0
-3533 3534 0
-3520 3534 0
-3534 3533 3520 0
-3533 -3520 3535 0
-3535 3533 0
-3535 3520 0
-3534 3536 0
-3521 3536 0
-3536 3534 3521 0
-3535 3537 0
-3534 -3521 3537 0
-3537 3535 3534 0
-3537 3535 3521 0
-3535 -3521 3538 0
-3538 3535 0
-3538 3521 0
-3536 3539 0
-3522 3539 0
-3539 3536 3522 0
-3537 3540 0
-3536 -3522 3540 0
-3540 3537 3536 0
-3540 3537 3522 0
-3538 3541 0
-3537 -3522 3541 0
-3541 3538 3537 0
-3541 3538 3522 0
-3539 3542 0
-3523 3542 0
-3542 3539 3523 0
-3540 3543 0
-3539 -3523 3543 0
-3543 3540 3539 0
-3543 3540 3523 0
-3541 3544 0
-3540 -3523 3544 0
-3544 3541 3540 0
-3544 3541 3523 0
-3542 3545 0
-3524 3545 0
-3545 3542 3524 0
-3543 3546 0
-3542 -3524 3546 0
-3546 3543 3542 0
-3546 3543 3524 0
-3544 3547 0
-3543 -3524 3547 0
-3547 3544 3543 0
-3547 3544 3524 0
-3545 3548 0
-3525 3548 0
-3548 3545 3525 0
-3546 3549 0
-3545 -3525 3549 0
-3549 3546 3545 0
-3549 3546 3525 0
-3547 3550 0
-3546 -3525 3550 0
-3550 3547 3546 0
-3550 3547 3525 0
-3548 3551 0
-3526 3551 0
-3551 3548 3526 0
-3549 3552 0
-3548 -3526 3552 0
-3552 3549 3548 0
-3552 3549 3526 0
-3550 3553 0
-3549 -3526 3553 0
-3553 3550 3549 0
-3553 3550 3526 0
-3551 3554 0
-3527 3554 0
-3554 3551 3527 0
-3552 3555 0
-3551 -3527 3555 0
-3555 3552 3551 0
-3555 3552 3527 0
-3553 3556 0
-3552 -3527 3556 0
-3556 3553 3552 0
-3556 3553 3527 0
-3554 3557 0
-3528 3557 0
-3557 3554 3528 0
-3555 3558 0
-3554 -3528 3558 0
-3558 3555 3554 0
-3558 3555 3528 0
-3556 3559 0
-3555 -3528 3559 0
-3559 3556 3555 0
-3559 3556 3528 0
-3557 3560 0
-3529 3560 0
-3560 3557 3529 0
-3558 3561 0
-3557 -3529 3561 0
-3561 3558 3557 0
-3561 3558 3529 0
-3559 3562 0
-3558 -3529 3562 0
-3562 3559 3558 0
-3562 3559 3529 0
-3560 3563 0
-3530 3563 0
-3563 3560 3530 0
-3561 3564 0
-3560 -3530 3564 0
-3564 3561 3560 0
-3564 3561 3530 0
-3562 3565 0
-3561 -3530 3565 0
-3565 3562 3561 0
-3565 3562 3530 0
-3563 3566 0
-3531 3566 0
-3566 3563 3531 0
-3564 3567 0
-3563 -3531 3567 0
-3567 3564 3563 0
-3567 3564 3531 0
-3565 3568 0
-3564 -3531 3568 0
-3568 3565 3564 0
-3568 3565 3531 0
-3566 3569 0
-3532 3569 0
-3569 3566 3532 0
-3567 3570 0
-3566 -3532 3570 0
-3570 3567 3566 0
-3570 3567 3532 0
-3568 3571 0
-3567 -3532 3571 0
-3571 3568 3567 0
-3571 3568 3532 0
3571 0
-3572 71 0
-3572 113 0
3572 -71 -113 0
-3573 72 0
-3573 114 0
3573 -72 -114 0
-3574 73 0
-3574 115 0
3574 -73 -115 0
-3575 74 0
-3575 116 0
3575 -74 -116 0
-3576 75 0
-3576 117 0
3576 -75 -117 0
-3577 76 0
-3577 118 0
3577 -76 -118 0
-3578 77 0
-3578 119 0
3578 -77 -119 0
-3579 78 0
-3579 120 0
3579 -78 -120 0
-3580 79 0
-3580 121 0
3580 -79 -121 0
-3581 80 0
-3581 122 0
3581 -80 -122 0
-3582 81 0
-3582 123 0
3582 -81 -123 0
-3583 82 0
-3583 124 0
3583 -82 -124 0
-3584 83 0
-3584 125 0
3584 -83 -125 0
-3585 84 0
-3585 126 0
3585 -84 -126 0
-3572 3586 0
-3586 3572 0
-3586 3587 0
-3573 3587 0
-3587 3586 3573 0
-3586 -3573 3588 0
-3588 3586 0
-3588 3573 0
-3587 3589 0
-3574 3589 0
-3589 3587 3574 0
-3588 3590 0
-3587 -3574 3590 0
-3590 3588 3587 0
-3590 3588 3574 0
-3588 -3574 3591 0
-3591 3588 0
-3591 3574 0
-3589 3592 0
-3575 3592 0
-3592 3589 3575 0
-3590 3593 0
-3589 -3575 3593 0
-3593 3590 3589 0
-3593 3590 3575 0
-3591 3594 0
-3590 -3575 3594 0
-3594 3591 3590 0
-3594 3591 3575 0
-3592 3595 0
-3576 3595 0
-3595 3592 3576 0
-3593 3596 0
-3592 -3576 3596 0
-3596 3593 3592 0
-3596 3593 3576 0
-3594 3597 0
-3593 -3576 3597 0
-3597 3594 3593 0
-3597 3594 3576 0
-3595 3598 0
-3577 3598 0
-3598 3595 3577 0
-3596 3599 0
-3595 -3577 3599 0
-3599 3596 3595 0
-3599 3596 3577 0
-3597 3600 0
-3596 -3577 3600 0
-3600 3597 3596 0
-3600 3597 3577 0
-3598 3601 0
-3578 3601 0
-3601 3598 3578 0
-3599 3602 0
-3598 -3578 3602 0
-3602 3599 3598 0
-3602 3599 3578 0
-3600 3603 0
-3599 -3578 3603 0
-3603 3600 3599 0
-3603 3600 3578 0
-3601 3604 0
-3579 3604 0
-3604 3601 3579 0
-3602 3605 0
-3601 -3579 3605 0
-3605 3602 3601 0
-3605 3602 3579 0
-3603 3606 0
-3602 -3579 3606 0
-3606 3603 3602 0
-3606 3603 3579 0
-3604 3607 0
-3580 3607 0
-3607 3604 3580 0
-3605 3608 0
-3604 -3580 3608 0
-3608 3605 3604 0
-3608 3605 3580 0
-3606 3609 0
-3605 -3580 3609 0
-3609 3606 3605 0
-3609 3606 3580 0
-3607 3610 0
-3581 3610 0
-3610 3607 3581 0
-3608 3611 0
-3607 -3581 3611 0
-3611 3608 3607 0
-3611 3608 3581 0
-3609 3612 0
-3608 -3581 3612 0
-3612 3609 3608 0
-3612 3609 3581 0
-3610 3613 0
-3582 3613 0
-3613 3610 3582 0
-3611 3614 0
-3610 -3582 3614 0
-3614 3611 3610 0
-3614 3611 3582 0
-3612 3615 0
-3611 -3582 3615 0
-3615 3612 3611 0
-3615 3612 3582 0
-3613 3616 0
-3583 3616 0
-3616 3613 3583 0
-3614 3617 0
-3613 -3583 3617 0
-3617 3614 3613 0
-3617 3614 3583 0
-3615 3618 0
-3614 -3583 3618 0
-3618 3615 3614 0
-3618 3615 3583 0
-3616 3619 0
-3584 3619 0
-3619 3616 3584 0
-3617 3620 0
-3616 -3584 3620 0
-3620 3617 3616 0
-3620 3617 3584 0
-3618 3621 0
-3617 -3584 3621 0
-3621 3618 3617 0
-3621 3618 3584 0
-3619 3622 0
-3585 3622 0
-3622 3619 3585 0
-3620 3623 0
-3619 -3585 3623 0
-3623 3620 3619 0
-3623 3620 3585 0
-3621 3624 0
-3620 -3585 3624 0
-3624 3621 3620 0
-3624 3621 3585 0
3624 0
-3625 71 0
-3625 127 0
3625 -71 -127 0
-3626 72 0
-3626 128 0
3626 -72 -128 0
-3627 73 0
-3627 129 0
3627 -73 -129 0
-3628 74 0
-3628 130 0
3628 -74 -130 0
-3629 75 0
-3629 131 0
3629 -75 -131 0
-3630 76 0
-3630 132 0
3630 -76 -132 0
-3631 77 0
-3631 133 0
3631 -77 -133 0
-3632 78 0
-3632 134 0
3632 -78 -134 0
-3633 79 0
-3633 135 0
3633 -79 -135 0
-3634 80 0
-3634 136 0
3634 -80 -136 0
-3635 81 0
-3635 137 0
3635 -81 -137 0
-3636 82 0
-3636 138 0
3636 -82 -138 0
-3637 83 0
-3637 139 0
3637 -83 -139 0
-3638 84 0
-3638 140 0
3638 -84 -140 0
-3625 3639 0
-3639 3625 0
-3639 3640 0
-3626 3640 0
-3640 3639 3626 0
-3639 -3626 3641 0
-3641 3639 0
-3641 3626 0
-3640 3642 0
-3627 3642 0
-3642 3640 3627 0
-3641 3643 0
-3640 -3627 3643 0
-3643 3641 3640 0
-3643 3641 3627 0
-3641 -3627 3644 0
-3644 3641 0
-3644 3627 0
-3642 3645 0
-3628 3645 0
-3645 3642 3628 0
-3643 3646 0
-3642 -3628 3646 0
-3646 3643 3642 0
-3646 3643 3628 0
-3644 3647 0
-3643 -3628 3647 0
-3647 3644 3643 0
-3647 3644 3628 0
-3645 3648 0
-3629 3648 0
-3648 3645 3629 0
-3646 3649 0
-3645 -3629 3649 0
-3649 3646 3645 0
-3649 3646 3629 0
-3647 3650 0
-3646 -3629 3650 0
-3650 3647 3646 0
-3650 3647 3629 0
-3648 3651 0
-3630 3651 0
-3651 3648 3630 0
-3649 3652 0
-3648 -3630 3652 0
-3652 3649 3648 0
-3652 3649 3630 0
-3650 3653 0
-3649 -3630 3653 0
-3653 3650 3649 0
-3653 3650 3630 0
-3651 3654 0
-3631 3654 0
-3654 3651 3631 0
-3652 3655 0
-3651 -3631 3655 0
-3655 3652 3651 0
-3655 3652 3631 0
-3653 3656 0
-3652 -3631 3656 0
-3656 3653 3652 0
-3656 3653 3631 0
-3654 3657 0
-3632 3657 0
-3657 3654 3632 0
-3655 3658 0
-3654 -3632 3658 0
-3658 3655 3654 0
-3658 3655 3632 0
-3656 3659 0
-3655 -3632 3659 0
-3659 3656 3655 0
-3659 3656 3632 0
-3657 3660 0
-3633 3660 0
-3660 3657 3633 0
-3658 3661 0
-3657 -3633 3661 0
-3661 3658 3657 0
-3661 3658 3633 0
-3659 3662 0
-3658 -3633 3662 0
-3662 3659 3658 0
-3662 3659 3633 0
-3660 3663 0
-3634 3663 0
-3663 3660 3634 0
-3661 3664 0
-3660 -3634 3664 0
-3664 3661 3660 0
-3664 3661 3634 0
-3662 3665 0
-3661 -3634 3665 0
-3665 3662 3661 0
-3665 3662 3634 0
-3663 3666 0
-3635 3666 0
-3666 3663 3635 0
-3664 3667 0
-3663 -3635 3667 0
-3667 3664 3663 0
-3667 3664 3635 0
-3665 3668 0
-3664 -3635 3668 0
-3668 3665 3664 0
-3668 3665 3635 0
-3666 3669 0
-3636 3669 0
-3669 3666 3636 0
-3667 3670 0
-3666 -3636 3670 0
-3670 3667 3666 0
-3670 3667 3636 0
-3668 3671 0
-3667 -3636 3671 0
-3671 3668 3667 0
-3671 3668 3636 0
-3669 3672 0
-3637 3672 0
-3672 3669 3637 0
-3670 3673 0
-3669 -3637 3673 0
-3673 3670 3669 0
-3673 3670 3637 0
-3671 3674 0
-3670 -3637 3674 0
-3674 3671 3670 0
-3674 3671 3637 0
-3672 3675 0
-3638 3675 0
-3675 3672 3638 0
-3673 3676 0
-3672 -3638 3676 0
-3676 3673 3672 0
-3676 3673 3638 0
-3674 3677 0
-3673 -3638 3677 0
-3677 3674 3673 0
-3677 3674 3638 0
3677 0
-3678 85 0
-3678 99 0
3678 -85 -99 0
-3679 86 0
-3679 100 0
3679 -86 -100 0
-3680 87 0
-3680 101 0
3680 -87 -101 0
-3681 88 0
-3681 102 0
3681 -88 -102 0
-3682 89 0
-3682 103 0
3682 -89 -103 0
-3683 90 0
-3683 104 0
3683 -90 -104 0
-3684 91 0
-3684 105 0
3684 -91 -105 0
-3685 92 0
-3685 106 0
3685 -92 -106 0
-3686 93 0
-3686 107 0
3686 -93 -107 0
-3687 94 0
-3687 108 0
3687 -94 -108 0
-3688 95 0
-3688 109 0
3688 -95 -109 0
-3689 96 0
-3689 110 0
3689 -96 -110 0
-3690 97 0
-3690 111 0
3690 -97 -111 0
-3691 98 0
-3691 112 0
3691 -98 -112 0
-3678 3692 0
-3692 3678 0
-3692 3693 0
-3679 3693 0
-3693 3692 3679 0
-3692 -3679 3694 0
-3694 3692 0
-3694 3679 0
-3693 3695 0
-3680 3695 0
-3695 3693 3680 0
-3694 3696 0
-3693 -3680 3696 0
-3696 3694 3693 0
-3696 3694 3680 0
-3694 -3680 3697 0
-3697 3694 0
-3697 3680 0
-3695 3698 0
-3681 3698 0
-3698 3695 3681 0
-3696 3699 0
-3695 -3681 3699 0
-3699 3696 3695 0
-3699 3696 3681 0
-3697 3700 0
-3696 -3681 3700 0
-3700 3697 3696 0
-3700 3697 3681 0
-3698 3701 0
-3682 3701 0
-3701 3698 3682 0
-3699 3702 0
-3698 -3682 3702 0
-3702 3699 3698 0
-3702 3699 3682 0
-3700 3703 0
-3699 -3682 3703 0
-3703 3700 3699 0
-3703 3700 3682 0
-3701 3704 0
-3683 3704 0
-3704 3701 3683 0
-3702 3705 0
-3701 -3683 3705 0
-3705 3702 3701 0
-3705 3702 3683 0
-3703 3706 0
-3702 -3683 3706 0
-3706 3703 3702 0
-3706 3703 3683 0
-3704 3707 0
-3684 3707 0
-3707 3704 3684 0
-3705 3708 0
-3704 -3684 3708 0
-3708 3705 3704 0
-3708 3705 3684 0
-3706 3709 0
-3705 -3684 3709 0
-3709 3706 3705 0
-3709 3706 3684 0
-3707 3710 0
-3685 3710 0
-3710 3707 3685 0
-3708 3711 0
-3707 -3685 3711 0
-3711 3708 3707 0
-3711 3708 3685 0
-3709 3712 0
-3708 -3685 3712 0
-3712 3709 3708 0
-3712 3709 3685 0
-3710 3713 0
-3686 3713 0
-3713 3710 3686 0
-3711 3714 0
-3710 -3686 3714 0
-3714 3711 3710 0
-3714 3711 3686 0
-3712 3715 0
-3711 -3686 3715 0
-3715 3712 3711 0
-3715 3712 3686 0
-3713 3716 0
-3687 3716 0
-3716 3713 3687 0
-3714 3717 0
-3713 -3687 3717 0
-3717 3714 3713 0
-3717 3714 3687 0
-3715 3718 0
-3714 -3687 3718 0
-3718 3715 3714 0
-3718 3715 3687 0
-3716 3719 0
-3688 3719 0
-3719 3716 3688 0
-3717 3720 0
-3716 -3688 3720 0
-3720 3717 3716 0
-3720 3717 3688 0
-3718 3721 0
-3717 -3688 3721 0
-3721 3718 3717 0
-3721 3718 3688 0
-3719 3722 0
-3689 3722 0
-3722 3719 3689 0
-3720 3723 0
-3719 -3689 3723 0
-3723 3720 3719 0
-3723 3720 3689 0
-3721 3724 0
-3720 -3689 3724 0
-3724 3721 3720 0
-3724 3721 3689 0
-3722 3725 0
-3690 3725 0
-3725 3722 3690 0
-3723 3726 0
-3722 -3690 3726 0
-3726 3723 3722 0
-3726 3723 3690 0
-3724 3727 0
-3723 -3690 3727 0
-3727 3724 3723 0
-3727 3724 3690 0
-3725 3728 0
-3691 3728 0
-3728 3725 3691 0
-3726 3729 0
-3725 -3691 3729 0
-3729 3726 3725 0
-3729 3726 3691 0
-3727 3730 0
-3726 -3691 3730 0
-3730 3727 3726 0
-3730 3727 3691 0
3730 0
-3731 85 0
-3731 113 0
3731 -85 -113 0
-3732 86 0
-3732 114 0
3732 -86 -114 0
-3733 87 0
-3733 115 0
3733 -87 -115 0
-3734 88 0
-3734 116 0
3734 -88 -116 0
-3735 89 0
-3735 117 0
3735 -89 -117 0
-3736 90 0
-3736 118 0
3736 -90 -118 0
-3737 91 0
-3737 119 0
3737 -91 -119 0
-3738 92 0
-3738 120 0
3738 -92 -120 0
-3739 93 0
-3739 121 0
3739 -93 -121 0
-3740 94 0
-3740 122 0
3740 -94 -122 0
-3741 95 0
-3741 123 0
3741 -95 -123 0
-3742 96 0
-3742 124 0
3742 -96 -124 0
-3743 97 0
-3743 125 0
3743 -97 -125 0
-3744 98 0
-3744 126 0
3744 -98 -126 0
-3731 3745 0
-3745 3731 0
-3745 3746 0
-3732 3746 0
-3746 3745 3732 0
-3745 -3732 3747 0
-3747 3745 0
-3747 3732 0
-3746 3748 0
-3733 3748 0
-3748 3746 3733 0
-3747 3749 0
-3746 -3733 3749 0
-3749 3747 3746 0
-3749 3747 3733 0
-3747 -3733 3750 0
-3750 3747 0
-3750 3733 0
-3748 3751 0
-3734 3751 0
-3751 3748 3734 0
-3749 3752 0
-3748 -3734 3752 0
-3752 3749 3748 0
-3752 3749 3734 0
-3750 3753 0
-3749 -3734 3753 0
-3753 3750 3749 0
-3753 3750 3734 0
-3751 3754 0
-3735 3754 0
-3754 3751 3735 0
-3752 3755 0
-3751 -3735 3755 0
-3755 3752 3751 0
-3755 3752 3735 0
-3753 3756 0
-3752 -3735 3756 0
-3756 3753 3752 0
-3756 3753 3735 0
-3754 3757 0
-3736 3757 0
-3757 3754 3736 0
-3755 3758 0
-3754 -3736 3758 0
-3758 3755 3754 0
-3758 3755 3736 0
-3756 3759 0
-3755 -3736 3759 0
-3759 3756 3755 0
-3759 3756 3736 0
-3757 3760 0
-3737 3760 0
-3760 3757 3737 0
-3758 3761 0
-3757 -3737 3761 0
-3761 3758 3757 0
-3761 3758 3737 0
-3759 3762 0
-3758 -3737 3762 0
-3762 3759 3758 0
-3762 3759 3737 0
-3760 3763 0
-3738 3763 0
-3763 3760 3738 0
-3761 3764 0
-3760 -3738 3764 0
-3764 3761 3760 0
-3764 3761 3738 0
-3762 3765 0
-3761 -3738 3765 0
-3765 3762 3761 0
-3765 3762 3738 0
-3763 3766 0
-3739 3766 0
-3766 3763 3739 0
-3764 3767 0
-3763 -3739 3767 0
-3767 3764 3763 0
-3767 3764 3739 0
-3765 3768 0
-3764 -3739 3768 0
-3768 3765 3764 0
-3768 3765 3739 0
-3766 3769 0
-3740 3769 0
-3769 3766 3740 0
-3767 3770 0
-3766 -3740 3770 0
-3770 3767 3766 0
-3770 3767 3740 0
-3768 3771 0
-3767 -3740 3771 0
-3771 3768 3767 0
-3771 3768 3740 0
-3769 3772 0
-3741 3772 0
-3772 3769 3741 0
-3770 3773 0
-3769 -3741 3773 0
-3773 3770 3769 0
-3773 3770 3741 0
-3771 3774 0
-3770 -3741 3774 0
-3774 3771 3770 0
-3774 3771 3741 0
-3772 3775 0
-3742 3775 0
-3775 3772 3742 0
-3773 3776 0
-3772 -3742 3776 0
-3776 3773 3772 0
-3776 3773 3742 0
-3774 3777 0
-3773 -3742 3777 0
-3777 3774 3773 0
-3777 3774 3742 0
-3775 3778 0
-3743 3778 0
-3778 3775 3743 0
-3776 3779 0
-3775 -3743 3779 0
-3779 3776 3775 0
-3779 3776 3743 0
-3777 3780 0
-3776 -3743 3780 0
-3780 3777 3776 0
-3780 3777 3743 0
-3778 3781 0
-3744 3781 0
-3781 3778 3744 0
-3779 3782 0
-3778 -3744 3782 0
-3782 3779 3778 0
-3782 3779 3744 0
-3780 3783 0
-3779 -3744 3783 0
-3783 3780 3779 0
-3783 3780 3744 0
3783 0
-3784 85 0
-3784 127 0
3784 -85 -127 0
-3785 86 0
-3785 128 0
3785 -86 -128 0
-3786 87 0
-3786 129 0
3786 -87 -129 0
-3787 88 0
-3787 130 0
3787 -88 -130 0
-3788 89 0
-3788 131 0
3788 -89 -131 0
-3789 90 0
-3789 132 0
3789 -90 -132 0
-3790 91 0
-3790 133 0
3790 -91 -133 0
-3791 92 0
-3791 134 0
3791 -92 -134 0
-3792 93 0
-3792 135 0
3792 -93 -135 0
-3793 94 0
-3793 136 0
3793 -94 -136 0
-3794 95 0
-3794 137 0
3794 -95 -137 0
-3795 96 0
-3795 138 0
3795 -96 -138 0
-3796 97 0
-3796 139 0
3796 -97 -139 0
-3797 98 0
-3797 140 0
3797 -98 -140 0
-3784 3798 0
-3798 3784 0
-3798 3799 0
-3785 3799 0
-3799 3798 3785 0
-3798 -3785 3800 0
-3800 3798 0
-3800 3785 0
-3799 3801 0
-3786 3801 0
-3801 3799 3786 0
-3800 3802 0
-3799 -3786 3802 0
-3802 3800 3799 0
-3802 3800 3786 0
-3800 -3786 3803 0
-3803 3800 0
-3803 3786 0
-3801 3804 0
-3787 3804 0
-3804 3801 3787 0
-3802 3805 0
-3801 -3787 3805 0
-3805 3802 3801 0
-3805 3802 3787 0
-3803 3806 0
-3802 -3787 3806 0
-3806 3803 3802 0
-3806 3803 3787 0
-3804 3807 0
-3788 3807 0
-3807 3804 3788 0
-3805 3808 0
-3804 -3788 3808 0
-3808 3805 3804 0
-3808 3805 3788 0
-3806 3809 0
-3805 -3788 3809 0
-3809 3806 3805 0
-3809 3806 3788 0
-3807 3810 0
-3789 3810 0
-3810 3807 3789 0
-3808 3811 0
-3807 -3789 3811 0
-3811 3808 3807 0
-3811 3808 3789 0
-3809 3812 0
-3808 -3789 3812 0
-3812 3809 3808 0
-3812 3809 3789 0
-3810 3813 0
-3790 3813 0
-3813 3810 3790 0
-3811 3814 0
-3810 -3790 3814 0
-3814 3811 3810 0
-3814 3811 3790 0
-3812 3815 0
-3811 -3790 3815 0
-3815 3812 3811 0
-3815 3812 3790 0
-3813 3816 0
-3791 3816 0
-3816 3813 3791 0
-3814 3817 0
-3813 -3791 3817 0
-3817 3814 3813 0
-3817 3814 3791 0
-3815 3818 0
-3814 -3791 3818 0
-3818 3815 3814 0
-3818 3815 3791 0
-3816 3819 0
-3792 3819 0
-3819 3816 3792 0
-3817 3820 0
-3816 -3792 3820 0
-3820 3817 3816 0
-3820 3817 3792 0
-3818 3821 0
-3817 -3792 3821 0
-3821 3818 3817 0
-3821 3818 3792 0
-3819 3822 0
-3793 3822 0
-3822 3819 3793 0
-3820 3823 0
-3819 -3793 3823 0
-3823 3820 3819 0
-3823 3820 3793 0
-3821 3824 0
-3820 -3793 3824 0
-3824 3821 3820 0
-3824 3821 3793 0
-3822 3825 0
-3794 3825 0
-3825 3822 3794 0
-3823 3826 0
-3822 -3794 3826 0
-3826 3823 3822 0
-3826 3823 3794 0
-3824 3827 0
-3823 -3794 3827 0
-3827 3824 3823 0
-3827 3824 3794 0
-3825 3828 0
-3795 3828 0
-3828 3825 3795 0
-3826 3829 0
-3825 -3795 3829 0
-3829 3826 3825 0
-3829 3826 3795 0
-3827 3830 0
-3826 -3795 3830 0
-3830 3827 3826 0
-3830 3827 3795 0
-3828 3831 0
-3796 3831 0
-3831 3828 3796 0
-3829 3832 0
-3828 -3796 3832 0
-3832 3829 3828 0
-3832 3829 3796 0
-3830 3833 0
-3829 -3796 3833 0
-3833 3830 3829 0
-3833 3830 3796 0
-3831 3834 0
-3797 3834 0
-3834 3831 3797 0
-3832 3835 0
-3831 -3797 3835 0
-3835 3832 3831 0
-3835 3832 3797 0
-3833 3836 0
-3832 -3797 3836 0
-3836 3833 3832 0
-3836 3833 3797 0
3836 0
-3837 99 0
-3837 113 0
3837 -99 -113 0
-3838 100 0
-3838 114 0
3838 -100 -114 0
-3839 101 0
-3839 115 0
3839 -101 -115 0
-3840 102 0
-3840 116 0
3840 -102 -116 0
-3841 103 0
-3841 117 0
3841 -103 -117 0
-3842 104 0
-3842 118 0
3842 -104 -118 0
-3843 105 0
-3843 119 0
3843 -105 -119 0
-3844 106 0
-3844 120 0
3844 -106 -120 0
-3845 107 0
-3845 121 0
3845 -107 -121 0
-3846 108 0
-3846 122 0
3846 -108 -122 0
-3847 109 0
-3847 123 0
3847 -109 -123 0
-3848 110 0
-3848 124 0
3848 -110 -124 0
-3849 111 0
-3849 125 0
3849 -111 -125 0
-3850 112 0
-3850 126 0
3850 -112 -126 0
-3837 3851 0
-3851 3837 0
-3851 3852 0
-3838 3852 0
-3852 3851 3838 0
-3851 -3838 3853 0
-3853 3851 0
-3853 3838 0
-3852 3854 0
-3839 3854 0
-3854 3852 3839 0
-3853 3855 0
-3852 -3839 3855 0
-3855 3853 3852 0
-3855 3853 3839 0
-3853 -3839 3856 0
-3856 3853 0
-3856 3839 0
-3854 3857 0
-3840 3857 0
-3857 3854 3840 0
-3855 3858 0
-3854 -3840 3858 0
-3858 3855 3854 0
-3858 3855 3840 0
-3856 3859 0
-3855 -3840 3859 0
-3859 3856 3855 0
-3859 3856 3840 0
-3857 3860 0
-3841 3860 0
-3860 3857 3841 0
-3858 3861 0
-3857 -3841 3861 0
-3861 3858 3857 0
-3861 3858 3841 0
-3859 3862 0
-3858 -3841 3862 0
-3862 3859 3858 0
-3862 3859 3841 0
-3860 3863 0
-3842 3863 0
-3863 3860 3842 0
-3861 3864 0
-3860 -3842 3864 0
-3864 3861 3860 0
-3864 3861 3842 0
-3862 3865 0
-3861 -3842 3865 0
-3865 3862 3861 0
-3865 3862 3842 0
-3863 3866 0
-3843 3866 0
-3866 3863 3843 0
-3864 3867 0
-3863 -3843 3867 0
-3867 3864 3863 0
-3867 3864 3843 0
-3865 3868 0
-3864 -3843 3868 0
-3868 3865 3864 0
-3868 3865 3843 0
-3866 3869 0
-3844 3869 0
-3869 3866 3844 0
-3867 3870 0
-3866 -3844 3870 0
-3870 3867 3866 0
-3870 3867 3844 0
-3868 3871 0
-3867 -3844 3871 0
-3871 3868 3867 0
-3871 3868 3844 0
-3869 3872 0
-3845 3872 0
-3872 3869 3845 0
-3870 3873 0
-3869 -3845 3873 0
-3873 3870 3869 0
-3873 3870 3845 0
-3871 3874 0
-3870 -3845 3874 0
-3874 3871 3870 0
-3874 3871 3845 0
-3872 3875 0
-3846 3875 0
-3875 3872 3846 0
-3873 3876 0
-3872 -3846 3876 0
-3876 3873 3872 0
-3876 3873 3846 0
-3874 3877 0
-3873 -3846 3877 0
-3877 3874 3873 0
-3877 3874 3846 0
-3875 3878 0
-3847 3878 0
-3878 3875 3847 0
-3876 3879 0
-3875 -3847 3879 0
-3879 3876 3875 0
-3879 3876 3847 0
-3877 3880 0
-3876 -3847 3880 0
-3880 3877 3876 0
-3880 3877 3847 0
-3878 3881 0
-3848 3881 0
-3881 3878 3848 0
-3879 3882 0
-3878 -3848 3882 0
-3882 3879 3878 0
-3882 3879 3848 0
-3880 3883 0
-3879 -3848 3883 0
-3883 3880 3879 0
-3883 3880 3848 0
-3881 3884 0
-3849 3884 0
-3884 3881 3849 0
-3882 3885 0
-3881 -3849 3885 0
-3885 3882 3881 0
-3885 3882 3849 0
-3883 3886 0
-3882 -3849 3886 0
-3886 3883 3882 0
-3886 3883 3849 0
-3884 3887 0
-3850 3887 0
-3887 3884 3850 0
-3885 3888 0
-3884 -3850 3888 0
-3888 3885 3884 0
-3888 3885 3850 0
-3886 3889 0
-3885 -3850 3889 0
-3889 3886 3885 0
-3889 3886 3850 0
3889 0
-3890 99 0
-3890 127 0
3890 -99 -127 0
-3891 100 0
-3891 128 0
3891 -100 -128 0
-3892 101 0
-3892 129 0
3892 -101 -129 0
-3893 102 0
-3893 130 0
3893 -102 -130 0
-3894 103 0
-3894 131 0
3894 -103 -131 0
-3895 104 0
-3895 132 0
3895 -104 -132 0
-3896 105 0
-3896 133 0
3896 -105 -133 0
-3897 106 0
-3897 134 0
3897 -106 -134 0
-3898 107 0
-3898 135 0
3898 -107 -135 0
-3899 108 0
-3899 136 0
3899 -108 -136 0
-3900 109 0
-3900 137 0
3900 -109 -137 0
-3901 110 0
-3901 138 0
3901 -110 -138 0
-3902 111 0
-3902 139 0
3902 -111 -139 0
-3903 112 0
-3903 140 0
3903 -112 -140 0
-3890 3904 0
-3904 3890 0
-3904 3905 0
-3891 3905 0
-3905 3904 3891 0
-3904 -3891 3906 0
-3906 3904 0
-3906 3891 0
-3905 3907 0
-3892 3907 0
-3907 3905 3892 0
-3906 3908 0
-3905 -3892 3908 0
-3908 3906 3905 0
-3908 3906 3892 0
-3906 -3892 3909 0
-3909 3906 0
-3909 3892 0
-3907 3910 0
-3893 3910 0
-3910 3907 3893 0
-3908 3911 0
-3907 -3893 3911 0
-3911 3908 3907 0
-3911 3908 3893 0
-3909 3912 0
-3908 -3893 3912 0
-3912 3909 3908 0
-3912 3909 3893 0
-3910 3913 0
-3894 3913 0
-3913 3910 3894 0
-3911 3914 0
-3910 -3894 3914 0
-3914 3911 3910 0
-3914 3911 3894 0
-3912 3915 0
-3911 -3894 3915 0
-3915 3912 3911 0
-3915 3912 3894 0
-3913 3916 0
-3895 3916 0
-3916 3913 3895 0
-3914 3917 0
-3913 -3895 3917 0
-3917 3914 3913 0
-3917 3914 3895 0
-3915 3918 0
-3914 -3895 3918 0
-3918 3915 3914 0
-3918 3915 3895 0
-3916 3919 0
-3896 3919 0
-3919 3916 3896 0
-3917 3920 0
-3916 -3896 3920 0
-3920 3917 3916 0
-3920 3917 3896 0
-3918 3921 0
-3917 -3896 3921 0
-3921 3918 3917 0
-3921 3918 3896 0
-3919 3922 0
-3897 3922 0
-3922 3919 3897 0
-3920 3923 0
-3919 -3897 3923 0
-3923 3920 3919 0
-3923 3920 3897 0
-3921 3924 0
-3920 -3897 3924 0
-3924 3921 3920 0
-3924 3921 3897 0
-3922 3925 0
-3898 3925 0
-3925 3922 3898 0
-3923 3926 0
-3922 -3898 3926 0
-3926 3923 3922 0
-3926 3923 3898 0
-3924 3927 0
-3923 -3898 3927 0
-3927 3924 3923 0
-3927 3924 3898 0
-3925 3928 0
-3899 3928 0
-3928 3925 3899 0
-3926 3929 0
-3925 -3899 3929 0
-3929 3926 3925 0
-3929 3926 3899 0
-3927 3930 0
-3926 -3899 3930 0
-3930 3927 3926 0
-3930 3927 3899 0
-3928 3931 0
-3900 3931 0
-3931 3928 3900 0
-3929 3932 0
-3928 -3900 3932 0
-3932 3929 3928 0
-3932 3929 3900 0
-3930 3933 0
-3929 -3900 3933 0
-3933 3930 3929 0
-3933 3930 3900 0
-3931 3934 0
-3901 3934 0
-3934 3931 3901 0
-3932 3935 0
-3931 -3901 3935 0
-3935 3932 3931 0
-3935 3932 3901 0
-3933 3936 0
-3932 -3901 3936 0
-3936 3933 3932 0
-3936 3933 3901 0
-3934 3937 0
-3902 3937 0
-3937 3934 3902 0
-3935 3938 0
-3934 -3902 3938 0
-3938 3935 3934 0
-3938 3935 3902 0
-3936 3939 0
-3935 -3902 3939 0
-3939 3936 3935 0
-3939 3936 3902 0
-3937 3940 0
-3903 3940 0
-3940 3937 3903 0
-3938 3941 0
-3937 -3903 3941 0
-3941 3938 3937 0
-3941 3938 3903 0
-3939 3942 0
-3938 -3903 3942 0
-3942 3939 3938 0
-3942 3939 3903 0
3942 0
-3943 113 0
-3943 127 0
3943 -113 -127 0
-3944 114 0
-3944 128 0
3944 -114 -128 0
-3945 115 0
-3945 129 0
3945 -115 -129 0
-3946 116 0
-3946 130 0
3946 -116 -130 0
-3947 117 0
-3947 131 0
3947 -117 -131 0
-3948 118 0
-3948 132 0
3948 -118 -132 0
-3949 119 0
-3949 133 0
3949 -119 -133 0
-3950 120 0
-3950 134 0
3950 -120 -134 0
-3951 121 0
-3951 135 0
3951 -121 -135 0
-3952 122 0
-3952 136 0
3952 -122 -136 0
-3953 123 0
-3953 137 0
3953 -123 -137 0
-3954 124 0
-3954 138 0
3954 -124 -138 0
-3955 125 0
-3955 139 0
3955 -125 -139 0
-3956 126 0
-3956 140 0
3956 -126 -140 0
-3943 3957 0
-3957 3943 0
-3957 3958 0
-3944 3958 0
-3958 3957 3944 0
-3957 -3944 3959 0
-3959 3957 0
-3959 3944 0
-3958 3960 0
-3945 3960 0
-3960 3958 3945 0
-3959 3961 0
-3958 -3945 3961 0
-3961 3959 3958 0
-3961 3959 3945 0
-3959 -3945 3962 0
-3962 3959 0
-3962 3945 0
-3960 3963 0
-3946 3963 0
-3963 3960 3946 0
-3961 3964 0
-3960 -3946 3964 0
-3964 3961 3960 0
-3964 3961 3946 0
-3962 3965 0
-3961 -3946 3965 0
-3965 3962 3961 0
-3965 3962 3946 0
-3963 3966 0
-3947 3966 0
-3966 3963 3947 0
-3964 3967 0
-3963 -3947 3967 0
-3967 3964 3963 0
-3967 3964 3947 0
-3965 3968 0
-3964 -3947 3968 0
-3968 3965 3964 0
-3968 3965 3947 0
-3966 3969 0
-3948 3969 0
-3969 3966 3948 0
-3967 3970 0
-3966 -3948 3970 0
-3970 3967 3966 0
-3970 3967 3948 0
-3968 3971 0
-3967 -3948 3971 0
-3971 3968 3967 0
-3971 3968 3948 0
-3969 3972 0
-3949 3972 0
-3972 3969 3949 0
-3970 3973 0
-3969 -3949 3973 0
-3973 3970 3969 0
-3973 3970 3949 0
-3971 3974 0
-3970 -3949 3974 0
-3974 3971 3970 0
-3974 3971 3949 0
-3972 3975 0
-3950 3975 0
-3975 3972 3950 0
-3973 3976 0
-3972 -3950 3976 0
-3976 3973 3972 0
-3976 3973 3950 0
-3974 3977 0
-3973 -3950 3977 0
-3977 3974 3973 0
-3977 3974 3950 0
-3975 3978 0
-3951 3978 0
-3978 3975 3951 0
-3976 3979 0
-3975 -3951 3979 0
-3979 3976 3975 0
-3979 3976 3951 0
-3977 3980 0
-3976 -3951 3980 0
-3980 3977 3976 0
-3980 3977 3951 0
-3978 3981 0
-3952 3981 0
-3981 3978 3952 0
-3979 3982 0
-3978 -3952 3982 0
-3982 3979 3978 0
-3982 3979 3952 0
-3980 3983 0
-3979 -3952 3983 0
-3983 3980 3979 0
-3983 3980 3952 0
-3981 3984 0
-3953 3984 0
-3984 3981 3953 0
-3982 3985 0
-3981 -3953 3985 0
-3985 3982 3981 0
-3985 3982 3953 0
-3983 3986 0
-3982 -3953 3986 0
-3986 3983 3982 0
-3986 3983 3953 0
-3984 3987 0
-3954 3987 0
-3987 3984 3954 0
-3985 3988 0
-3984 -3954 3988 0
-3988 3985 3984 0
-3988 3985 3954 0
-3986 3989 0
-3985 -3954 3989 0
-3989 3986 3985 0
-3989 3986 3954 0
-3987 3990 0
-3955 3990 0
-3990 3987 3955 0
-3988 3991 0
-3987 -3955 3991 0
-3991 3988 3987 0
-3991 3988 3955 0
-3989 3992 0
-3988 -3955 3992 0
-3992 3989 3988 0
-3992 3989 3955 0
-3990 3993 0
-3956 3993 0
-3993 3990 3956 0
-3991 3994 0
-3990 -3956 3994 0
-3994 3991 3990 0
-3994 3991 3956 0
-3992 3995 0
-3991 -3956 3995 0
-3995 3992 3991 0
-3995 3992 3956 0
3995 0
-3996 1611 0
-3996 29 0
-3997 1612 0
-3997 30 0
-3998 1613 0
-3998 31 0
-3999 1614 0
-3999 32 0
-4000 1615 0
-4000 33 0
-4001 1616 0
-4001 34 0
-4002 1617 0
-4002 35 0
-4003 1618 0
-4003 36 0
-4004 1619 0
-4004 37 0
-4005 1620 0
-4005 38 0
-4006 1621 0
-4006 39 0
-4007 1622 0
-4007 40 0
-4008 1623 0
-4008 41 0
-4009 1624 0
-4009 42 0
3996 3997 3998 3999 4000 4001 4002 4003 4004 4005 4006 4007 4008 4009 0
-4010 1611 0
-4010 43 0
-4011 1612 0
-4011 44 0
-4012 1613 0
-4012 45 0
-4013 1614 0
-4013 46 0
-4014 1615 0
-4014 47 0
-4015 1616 0
-4015 48 0
-4016 1617 0
-4016 49 0
-4017 1618 0
-4017 50 0
-4018 1619 0
-4018 51 0
-4019 1620 0
-4019 52 0
-4020 1621 0
-4020 53 0
-4021 1622 0
-4021 54 0
-4022 1623 0
-4022 55 0
-4023 1624 0
-4023 56 0
4010 4011 4012 4013 4014 4015 4016 4017 4018 4019 4020 4021 4022 4023 0
-4024 1611 0
-4024 57 0
-4025 1612 0
-4025 58 0
-4026 1613 0
-4026 59 0
-4027 1614 0
-4027 60 0
-4028 1615 0
-4028 61 0
-4029 1616 0
-4029 62 0
-4030 1617 0
-4030 63 0
-4031 1618 0
-4031 64 0
-4032 1619 0
-4032 65 0
-4033 1620 0
-4033 66 0
-4034 1621 0
-4034 67 0
-4035 1622 0
-4035 68 0
-4036 1623 0
-4036 69 0
-4037 1624 0
-4037 70 0
4024 4025 4026 4027 4028 4029 4030 4031 4032 4033 4034 4035 4036 4037 0
-4038 1611 0
-4038 71 0
-4039 1612 0
-4039 72 0
-4040 1613 0
-4040 73 0
-4041 1614 0
-4041 74 0
-4042 1615 0
-4042 75 0
-4043 1616 0
-4043 76 0
-4044 1617 0
-4044 77 0
-4045 1618 0
-4045 78 0
-4046 1619 0
-4046 79 0
-4047 1620 0
-4047 80 0
-4048 1621 0
-4048 81 0
-4049 1622 0
-4049 82 0
-4050 1623 0
-4050 83 0
-4051 1624 0
-4051 84 0
4038 4039 4040 4041 4042 4043 4044 4045 4046 4047 4048 4049 4050 4051 0
-4052 1611 0
-4052 85 0
-4053 1612 0
-4053 86 0
-4054 1613 0
-4054 87 0
-4055 1614 0
-4055 88 0
-4056 1615 0
-4056 89 0
-4057 1616 0
-4057 90 0
-4058 1617 0
-4058 91 0
-4059 1618 0
-4059 92 0
-4060 1619 0
-4060 93 0
-4061 1620 0
-4061 94 0
-4062 1621 0
-4062 95 0
-4063 1622 0
-4063 96 0
-4064 1623 0
-4064 97 0
-4065 1624 0
-4065 98 0
4052 4053 4054 4055 4056 4057 4058 4059 4060 4061 4062 4063 4064 4065 0
-4066 1611 0
-4066 99 0
-4067 1612 0
-4067 100 0
-4068 1613 0
-4068 101 0
-4069 1614 0
-4069 102 0
-4070 1615 0
-4070 103 0
-4071 1616 0
-4071 104 0
-4072 1617 0
-4072 105 0
-4073 1618 0
-4073 106 0
-4074 1619 0
-4074 107 0
-4075 1620 0
-4075 108 0
-4076 1621 0
-4076 109 0
-4077 1622 0
-4077 110 0
-4078 1623 0
-4078 111 0
-4079 1624 0
-4079 112 0
4066 4067 4068 4069 4070 4071 4072 4073 4074 4075 4076 4077 4078 4079 0
-4080 1611 0
-4080 113 0
-4081 1612 0
-4081 114 0
-4082 1613 0
-4082 115 0
-4083 1614 0
-4083 116 0
-4084 1615 0
-4084 117 0
-4085 1616 0
-4085 118 0
-4086 1617 0
-4086 119 0
-4087 1618 0
-4087 120 0
-4088 1619 0
-4088 121 0
-4089 1620 0
-4089 122 0
-4090 1621 0
-4090 123 0
-4091 1622 0
-4091 124 0
-4092 1623 0
-4092 125 0
-4093 1624 0
-4093 126 0
4080 4081 4082 4083 4084 4085 4086 4087 4088 4089 4090 4091 4092 4093 0
-4094 1611 0
-4094 127 0
-4095 1612 0
-4095 128 0
-4096 1613 0
-4096 129 0
-4097 1614 0
-4097 130 0
-4098 1615 0
-4098 131 0
-4099 1616 0
-4099 132 0
-4100 1617 0
-4100 133 0
-4101 1618 0
-4101 134 0
-4102 1619 0
-4102 135 0
-4103 1620 0
-4103 136 0
-4104 1621 0
-4104 137 0
-4105 1622 0
-4105 138 0
-4106 1623 0
-4106 139 0
-4107 1624 0
-4107 140 0
4094 4095 4096 4097 4098 4099 4100 4101 4102 4103 4104 4105 4106 4107 0
-4108 1664 0
-4108 43 0
-4109 1665 0
-4109 44 0
-4110 1666 0
-4110 45 0
-4111 1667 0
-4111 46 0
-4112 1668 0
-4112 47 0
-4113 1669 0
-4113 48 0
-4114 1670 0
-4114 49 0
-4115 1671 0
-4115 50 0
-4116 1672 0
-4116 51 0
-4117 1673 0
-4117 52 0
-4118 1674 0
-4118 53 0
-4119 1675 0
-4119 54 0
-4120 1676 0
-4120 55 0
-4121 1677 0
-4121 56 0
4108 4109 4110 4111 4112 4113 4114 4115 4116 4117 4118 4119 4120 4121 0
-4122 1664 0
-4122 57 0
-4123 1665 0
-4123 58 0
-4124 1666 0
-4124 59 0
-4125 1667 0
-4125 60 0
-4126 1668 0
-4126 61 0
-4127 1669 0
-4127 62 0
-4128 1670 0
-4128 63 0
-4129 1671 0
-4129 64 0
-4130 1672 0
-4130 65 0
-4131 1673 0
-4131 66 0
-4132 1674 0
-4132 67 0
-4133 1675 0
-4133 68 0
-4134 1676 0
-4134 69 0
-4135 1677 0
-4135 70 0
4122 4123 4124 4125 4126 4127 4128 4129 4130 4131 4132 4133 4134 4135 0
-4136 1664 0
-4136 71 0
-4137 1665 0
-4137 72 0
-4138 1666 0
-4138 73 0
-4139 1667 0
-4139 74 0
-4140 1668 0
-4140 75 0
-4141 1669 0
-4141 76 0
-4142 1670 0
-4142 77 0
-4143 1671 0
-4143 78 0
-4144 1672 0
-4144 79 0
-4145 1673 0
-4145 80 0
-4146 1674 0
-4146 81 0
-4147 1675 0
-4147 82 0
-4148 1676 0
-4148 83 0
-4149 1677 0
-4149 84 0
4136 4137 4138 4139 4140 4141 4142 4143 4144 4145 4146 4147 4148 4149 0
-4150 1664 0
-4150 85 0
-4151 1665 0
-4151 86 0
-4152 1666 0
-4152 87 0
-4153 1667 0
-4153 88 0
-4154 1668 0
-4154 89 0
-4155 1669 0
-4155 90 0
-4156 1670 0
-4156 91 0
-4157 1671 0
-4157 92 0
-4158 1672 0
-4158 93 0
-4159 1673 0
-4159 94 0
-4160 1674 0
-4160 95 0
-4161 1675 0
-4161 96 0
-4162 1676 0
-4162 97 0
-4163 1677 0
-4163 98 0
4150 4151 4152 4153 4154 4155 4156 4157 4158 4159 4160 4161 4162 4163 0
-4164 1664 0
-4164 99 0
-4165 1665 0
-4165 100 0
-4166 1666 0
-4166 101 0
-4167 1667 0
-4167 102 0
-4168 1668 0
-4168 103 0
-4169 1669 0
-4169 104 0
-4170 1670 0
-4170 105 0
-4171 1671 0
-4171 106 0
-4172 1672 0
-4172 107 0
-4173 1673 0
-4173 108 0
-4174 1674 0
-4174 109 0
-4175 1675 0
-4175 110 0
-4176 1676 0
-4176 111 0
-4177 1677 0
-4177 112 0
4164 4165 4166 4167 4168 4169 4170 4171 4172 4173 4174 4175 4176 4177 0
-4178 1664 0
-4178 113 0
-4179 1665 0
-4179 114 0
-4180 1666 0
-4180 115 0
-4181 1667 0
-4181 116 0
-4182 1668 0
-4182 117 0
-4183 1669 0
-4183 118 0
-4184 1670 0
-4184 119 0
-4185 1671 0
-4185 120 0
-4186 1672 0
-4186 121 0
-4187 1673 0
-4187 122 0
-4188 1674 0
-4188 123 0
-4189 1675 0
-4189 124 0
-4190 1676 0
-4190 125 0
-4191 1677 0
-4191 126 0
4178 4179 4180 4181 4182 4183 4184 4185 4186 4187 4188 4189 4190 4191 0
-4192 1664 0
-4192 127 0
-4193 1665 0
-4193 128 0
-4194 1666 0
-4194 129 0
-4195 1667 0
-4195 130 0
-4196 1668 0
-4196 131 0
-4197 1669 0
-4197 132 0
-4198 1670 0
-4198 133 0
-4199 1671 0
-4199 134 0
-4200 1672 0
-4200 135 0
-4201 1673 0
-4201 136 0
-4202 1674 0
-4202 137 0
-4203 1675 0
-4203 138 0
-4204 1676 0
-4204 139 0
-4205 1677 0
-4205 140 0
4192 4193 4194 4195 4196 4197 4198 4199 4200 4201 4202 4203 4204 4205 0
-4206 1717 0
-4206 57 0
-4207 1718 0
-4207 58 0
-4208 1719 0
-4208 59 0
-4209 1720 0
-4209 60 0
-4210 1721 0
-4210 61 0
-4211 1722 0
-4211 62 0
-4212 1723 0
-4212 63 0
-4213 1724 0
-4213 64 0
-4214 1725 0
-4214 65 0
-4215 1726 0
-4215 66 0
-4216 1727 0
-4216 67 0
-4217 1728 0
-4217 68 0
-4218 1729 0
-4218 69 0
-4219 1730 0
-4219 70 0
4206 4207 4208 4209 4210 4211 4212 4213 4214 4215 4216 4217 4218 4219 0
-4220 1717 0
-4220 71 0
-4221 1718 0
-4221 72 0
-4222 1719 0
-4222 73 0
-4223 1720 0
-4223 74 0
-4224 1721 0
-4224 75 0
-4225 1722 0
-4225 76 0
-4226 1723 0
-4226 77 0
-4227 1724 0
-4227 78 0
-4228 1725 0
-4228 79 0
-4229 1726 0
-4229 80 0
-4230 1727 0
-4230 81 0
-4231 1728 0
-4231 82 0
-4232 1729 0
-4232 83 0
-4233 1730 0
-4233 84 0
4220 4221 4222 4223 4224 4225 4226 4227 4228 4229 4230 4231 4232 4233 0
-4234 1717 0
-4234 85 0
-4235 1718 0
-4235 86 0
-4236 1719 0
-4236 87 0
-4237 1720 0
-4237 88 0
-4238 1721 0
-4238 89 0
-4239 1722 0
-4239 90 0
-4240 1723 0
-4240 91 0
-4241 1724 0
-4241 92 0
-4242 1725 0
-4242 93 0
-4243 1726 0
-4243 94 0
-4244 1727 0
-4244 95 0
-4245 1728 0
-4245 96 0
-4246 1729 0
-4246 97 0
-4247 1730 0
-4247 98 0
4234 4235 4236 4237 4238 4239 4240 4241 4242 4243 4244 4245 4246 4247 0
-4248 1717 0
-4248 99 0
-4249 1718 0
-4249 100 0
-4250 1719 0
-4250 101 0
-4251 1720 0
-4251 102 0
-4252 1721 0
-4252 103 0
-4253 1722 0
-4253 104 0
-4254 1723 0
-4254 105 0
-4255 1724 0
-4255 106 0
-4256 1725 0
-4256 107 0
-4257 1726 0
-4257 108 0
-4258 1727 0
-4258 109 0
-4259 1728 0
-4259 110 0
-4260 1729 0
-4260 111 0
-4261 1730 0
-4261 112 0
4248 4249 4250 4251 4252 4253 4254 4255 4256 4257 4258 4259 4260 4261 0
-4262 1717 0
-4262 113 0
-4263 1718 0
-4263 114 0
-4264 1719 0
-4264 115 0
-4265 1720 0
-4265 116 0
-4266 1721 0
-4266 117 0
-4267 1722 0
-4267 118 0
-4268 1723 0
-4268 119 0
-4269 1724 0
-4269 120 0
-4270 1725 0
-4270 121 0
-4271 1726 0
-4271 122 0
-4272 1727 0
-4272 123 0
-4273 1728 0
-4273 124 0
-4274 1729 0
-4274 125 0
-4275 1730 0
-4275 126 0
4262 4263 4264 4265 4266 4267 4268 4269 4270 4271 4272 4273 4274 4275 0
-4276 1717 0
-4276 127 0
-4277 1718 0
-4277 128 0
-4278 1719 0
-4278 129 0
-4279 1720 0
-4279 130 0
-4280 1721 0
-4280 131 0
-4281 1722 0
-4281 132 0
-4282 1723 0
-4282 133 0
-4283 1724 0
-4283 134 0
-4284 1725 0
-4284 135 0
-4285 1726 0
-4285 136 0
-4286 1727 0
-4286 137 0
-4287 1728 0
-4287 138 0
-4288 1729 0
-4288 139 0
-4289 1730 0
-4289 140 0
4276 4277 4278 4279 4280 4281 4282 4283 4284 4285 4286 4287 4288 4289 0
-4290 1770 0
-4290 71 0
-4291 1771 0
-4291 72 0
-4292 1772 0
-4292 73 0
-4293 1773 0
-4293 74 0
-4294 1774 0
-4294 75 0
-4295 1775 0
-4295 76 0
-4296 1776 0
-4296 77 0
-4297 1777 0
-4297 78 0
-4298 1778 0
-4298 79 0
-4299 1779 0
-4299 80 0
-4300 1780 0
-4300 81 0
-4301 1781 0
-4301 82 0
-4302 1782 0
-4302 83 0
-4303 1783 0
-4303 84 0
4290 4291 4292 4293 4294 4295 4296 4297 4298 4299 4300 4301 4302 4303 0
-4304 1770 0
-4304 85 0
-4305 1771 0
-4305 86 0
-4306 1772 0
-4306 87 0
-4307 1773 0
-4307 88 0
-4308 1774 0
-4308 89 0
-4309 1775 0
-4309 90 0
-4310 1776 0
-4310 91 0
-4311 1777 0
-4311 92 0
-4312 1778 0
-4312 93 0
-4313 1779 0
-4313 94 0
-4314 1780 0
-4314 95 0
-4315 1781 0
-4315 96 0
-4316 1782 0
-4316 97 0
-4317 1783 0
-4317 98 0
4304 4305 4306 4307 4308 4309 4310 4311 4312 4313 4314 4315 4316 4317 0
-4318 1770 0
-4318 99 0
-4319 1771 0
-4319 100 0
-4320 1772 0
-4320 101 0
-4321 1773 0
-4321 102 0
-4322 1774 0
-4322 103 0
-4323 1775 0
-4323 104 0
-4324 1776 0
-4324 105 0
-4325 1777 0
-4325 106 0
-4326 1778 0
-4326 107 0
-4327 1779 0
-4327 108 0
-4328 1780 0
-4328 109 0
-4329 1781 0
-4329 110 0
-4330 1782 0
-4330 111 0
-4331 1783 0
-4331 112 0
4318 4319 4320 4321 4322 4323 4324 4325 4326 4327 4328 4329 4330 4331 0
-4332 1770 0
-4332 113 0
-4333 1771 0
-4333 114 0
-4334 1772 0
-4334 115 0
-4335 1773 0
-4335 116 0
-4336 1774 0
-4336 117 0
-4337 1775 0
-4337 118 0
-4338 1776 0
-4338 119 0
-4339 1777 0
-4339 120 0
-4340 1778 0
-4340 121 0
-4341 1779 0
-4341 122 0
-4342 1780 0
-4342 123 0
-4343 1781 0
-4343 124 0
-4344 1782 0
-4344 125 0
-4345 1783 0
-4345 126 0
4332 4333 4334 4335 4336 4337 4338 4339 4340 4341 4342 4343 4344 4345 0
-4346 1770 0
-4346 127 0
-4347 1771 0
-4347 128 0
-4348 1772 0
-4348 129 0
-4349 1773 0
-4349 130 0
-4350 1774 0
-4350 131 0
-4351 1775 0
-4351 132 0
-4352 1776 0
-4352 133 0
-4353 1777 0
-4353 134 0
-4354 1778 0
-4354 135 0
-4355 1779 0
-4355 136 0
-4356 1780 0
-4356 137 0
-4357 1781 0
-4357 138 0
-4358 1782 0
-4358 139 0
-4359 1783 0
-4359 140 0
4346 4347 4348 4349 4350 4351 4352 4353 4354 4355 4356 4357 4358 4359 0
-4360 1823 0
-4360 85 0
-4361 1824 0
-4361 86 0
-4362 1825 0
-4362 87 0
-4363 1826 0
-4363 88 0
-4364 1827 0
-4364 89 0
-4365 1828 0
-4365 90 0
-4366 1829 0
-4366 91 0
-4367 1830 0
-4367 92 0
-4368 1831 0
-4368 93 0
-4369 1832 0
-4369 94 0
-4370 1833 0
-4370 95 0
-4371 1834 0
-4371 96 0
-4372 1835 0
-4372 97 0
-4373 1836 0
-4373 98 0
4360 4361 4362 4363 4364 4365 4366 4367 4368 4369 4370 4371 4372 4373 0
-4374 1823 0
-4374 99 0
-4375 1824 0
-4375 100 0
-4376 1825 0
-4376 101 0
-4377 1826 0
-4377 102 0
-4378 1827 0
-4378 103 0
-4379 1828 0
-4379 104 0
-4380 1829 0
-4380 105 0
-4381 1830 0
-4381 106 0
-4382 1831 0
-4382 107 0
-4383 1832 0
-4383 108 0
-4384 1833 0
-4384 109 0
-4385 1834 0
-4385 110 0
-4386 1835 0
-4386 111 0
-4387 1836 0
-4387 112 0
4374 4375 4376 4377 4378 4379 4380 4381 4382 4383 4384 4385 4386 4387 0
-4388 1823 0
-4388 113 0
-4389 1824 0
-4389 114 0
-4390 1825 0
-4390 115 0
-4391 1826 0
-4391 116 0
-4392 1827 0
-4392 117 0
-4393 1828 0
-4393 118 0
-4394 1829 0
-4394 119 0
-4395 1830 0
-4395 120 0
-4396 1831 0
-4396 121 0
-4397 1832 0
-4397 122 0
-4398 1833 0
-4398 123 0
-4399 1834 0
-4399 124 0
-4400 1835 0
-4400 125 0
-4401 1836 0
-4401 126 0
4388 4389 4390 4391 4392 4393 4394 4395 4396 4397 4398 4399 4400 4401 0
-4402 1823 0
-4402 127 0
-4403 1824 0
-4403 128 0
-4404 1825 0
-4404 129 0
-4405 1826 0
-4405 130 0
-4406 1827 0
-4406 131 0
-4407 1828 0
-4407 132 0
-4408 1829 0
-4408 133 0
-4409 1830 0
-4409 134 0
-4410 1831 0
-4410 135 0
-4411 1832 0
-4411 136 0
-4412 1833 0
-4412 137 0
-4413 1834 0
-4413 138 0
-4414 1835 0
-4414 139 0
-4415 1836 0
-4415 140 0
4402 4403 4404 4405 4406 4407 4408 4409 4410 4411 4412 4413 4414 4415 0
-4416 1876 0
-4416 99 0
-4417 1877 0
-4417 100 0
-4418 1878 0
-4418 101 0
-4419 1879 0
-4419 102 0
-4420 1880 0
-4420 103 0
-4421 1881 0
-4421 104 0
-4422 1882 0
-4422 105 0
-4423 1883 0
-4423 106 0
-4424 1884 0
-4424 107 0
-4425 1885 0
-4425 108 0
-4426 1886 0
-4426 109 0
-4427 1887 0
-4427 110 0
-4428 1888 0
-4428 111 0
-4429 1889 0
-4429 112 0
4416 4417 4418 4419 4420 4421 4422 4423 4424 4425 4426 4427 4428 4429 0
-4430 1876 0
-4430 113 0
-4431 1877 0
-4431 114 0
-4432 1878 0
-4432 115 0
-4433 1879 0
-4433 116 0
-4434 1880 0
-4434 117 0
-4435 1881 0
-4435 118 0
-4436 1882 0
-4436 119 0
-4437 1883 0
-4437 120 0
-4438 1884 0
-4438 121 0
-4439 1885 0
-4439 122 0
-4440 1886 0
-4440 123 0
-4441 1887 0
-4441 124 0
-4442 1888 0
-4442 125 0
-4443 1889 0
-4443 126 0
4430 4431 4432 4433 4434 4435 4436 4437 4438 4439 4440 4441 4442 4443 0
-4444 1876 0
-4444 127 0
-4445 1877 0
-4445 128 0
-4446 1878 0
-4446 129 0
-4447 1879 0
-4447 130 0
-4448 1880 0
-4448 131 0
-4449 1881 0
-4449 132 0
-4450 1882 0
-4450 133 0
-4451 1883 0
-4451 134 0
-4452 1884 0
-4452 135 0
-4453 1885 0
-4453 136 0
-4454 1886 0
-4454 137 0
-4455 1887 0
-4455 138 0
-4456 1888 0
-4456 139 0
-4457 1889 0
-4457 140 0
4444 4445 4446 4447 4448 4449 4450 4451 4452 4453 4454 4455 4456 4457 0
-4458 1929 0
-4458 113 0
-4459 1930 0
-4459 114 0
-4460 1931 0
-4460 115 0
-4461 1932 0
-4461 116 0
-4462 1933 0
-4462 117 0
-4463 1934 0
-4463 118 0
-4464 1935 0
-4464 119 0
-4465 1936 0
-4465 120 0
-4466 1937 0
-4466 121 0
-4467 1938 0
-4467 122 0
-4468 1939 0
-4468 123 0
-4469 1940 0
-4469 124 0
-4470 1941 0
-4470 125 0
-4471 1942 0
-4471 126 0
4458 4459 4460 4461 4462 4463 4464 4465 4466 4467 4468 4469 4470 4471 0
-4472 1929 0
-4472 127 0
-4473 1930 0
-4473 128 0
-4474 1931 0
-4474 129 0
-4475 1932 0
-4475 130 0
-4476 1933 0
-4476 131 0
-4477 1934 0
-4477 132 0
-4478 1935 0
-4478 133 0
-4479 1936 0
-4479 134 0
-4480 1937 0
-4480 135 0
-4481 1938 0
-4481 136 0
-4482 1939 0
-4482 137 0
-4483 1940 0
-4483 138 0
-4484 1941 0
-4484 139 0
-4485 1942 0
-4485 140 0
4472 4473 4474 4475 4476 4477 4478 4479 4480 4481 4482 4483 4484 4485 0
-4486 1982 0
-4486 127 0
-4487 1983 0
-4487 128 0
-4488 1984 0
-4488 129 0
-4489 1985 0
-4489 130 0
-4490 1986 0
-4490 131 0
-4491 1987 0
-4491 132 0
-4492 1988 0
-4492 133 0
-4493 1989 0
-4493 134 0
-4494 1990 0
-4494 135 0
-4495 1991 0
-4495 136 0
-4496 1992 0
-4496 137 0
-4497 1993 0
-4497 138 0
-4498 1994 0
-4498 139 0
-4499 1995 0
-4499 140 0
4486 4487 4488 4489 4490 4491 4492 4493 4494 4495 4496 4497 4498 4499 0
-4500 2088 0
-4500 43 0
-4501 2089 0
-4501 44 0
-4502 2090 0
-4502 45 0
-4503 2091 0
-4503 46 0
-4504 2092 0
-4504 47 0
-4505 2093 0
-4505 48 0
-4506 2094 0
-4506 49 0
-4507 2095 0
-4507 50 0
-4508 2096 0
-4508 51 0
-4509 2097 0
-4509 52 0
-4510 2098 0
-4510 53 0
-4511 2099 0
-4511 54 0
-4512 2100 0
-4512 55 0
-4513 2101 0
-4513 56 0
4500 4501 4502 4503 4504 4505 4506 4507 4508 4509 4510 4511 4512 4513 0
-4514 2088 0
-4514 57 0
-4515 2089 0
-4515 58 0
-4516 2090 0
-4516 59 0
-4517 2091 0
-4517 60 0
-4518 2092 0
-4518 61 0
-4519 2093 0
-4519 62 0
-4520 2094 0
-4520 63 0
-4521 2095 0
-4521 64 0
-4522 2096 0
-4522 65 0
-4523 2097 0
-4523 66 0
-4524 2098 0
-4524 67 0
-4525 2099 0
-4525 68 0
-4526 2100 0
-4526 69 0
-4527 2101 0
-4527 70 0
4514 4515 4516 4517 4518 4519 4520 4521 4522 4523 4524 4525 4526 4527 0
-4528 2088 0
-4528 71 0
-4529 2089 0
-4529 72 0
-4530 2090 0
-4530 73 0
-4531 2091 0
-4531 74 0
-4532 2092 0
-4532 75 0
-4533 2093 0
-4533 76 0
-4534 2094 0
-4534 77 0
-4535 2095 0
-4535 78 0
-4536 2096 0
-4536 79 0
-4537 2097 0
-4537 80 0
-4538 2098 0
-4538 81 0
-4539 2099 0
-4539 82 0
-4540 2100 0
-4540 83 0
-4541 2101 0
-4541 84 0
4528 4529 4530 4531 4532 4533 4534 4535 4536 4537 4538 4539 4540 4541 0
-4542 2088 0
-4542 85 0
-4543 2089 0
-4543 86 0
-4544 2090 0
-4544 87 0
-4545 2091 0
-4545 88 0
-4546 2092 0
-4546 89 0
-4547 2093 0
-4547 90 0
-4548 2094 0
-4548 91 0
-4549 2095 0
-4549 92 0
-4550 2096 0
-4550 93 0
-4551 2097 0
-4551 94 0
-4552 2098 0
-4552 95 0
-4553 2099 0
-4553 96 0
-4554 2100 0
-4554 97 0
-4555 2101 0
-4555 98 0
4542 4543 4544 4545 4546 4547 4548 4549 4550 4551 4552 4553 4554 4555 0
-4556 2088 0
-4556 99 0
-4557 2089 0
-4557 100 0
-4558 2090 0
-4558 101 0
-4559 2091 0
-4559 102 0
-4560 2092 0
-4560 103 0
-4561 2093 0
-4561 104 0
-4562 2094 0
-4562 105 0
-4563 2095 0
-4563 106 0
-4564 2096 0
-4564 107 0
-4565 2097 0
-4565 108 0
-4566 2098 0
-4566 109 0
-4567 2099 0
-4567 110 0
-4568 2100 0
-4568 111 0
-4569 2101 0
-4569 112 0
4556 4557 4558 4559 4560 4561 4562 4563 4564 4565 4566 4567 4568 4569 0
-4570 2088 0
-4570 113 0
-4571 2089 0
-4571 114 0
-4572 2090 0
-4572 115 0
-4573 2091 0
-4573 116 0
-4574 2092 0
-4574 117 0
-4575 2093 0
-4575 118 0
-4576 2094 0
-4576 119 0
-4577 2095 0
-4577 120 0
-4578 2096 0
-4578 121 0
-4579 2097 0
-4579 122 0
-4580 2098 0
-4580 123 0
-4581 2099 0
-4581 124 0
-4582 2100 0
-4582 125 0
-4583 2101 0
-4583 126 0
4570 4571 4572 4573 4574 4575 4576 4577 4578 4579 4580 4581 4582 4583 0
-4584 2088 0
-4584 127 0
-4585 2089 0
-4585 128 0
-4586 2090 0
-4586 129 0
-4587 2091 0
-4587 130 0
-4588 2092 0
-4588 131 0
-4589 2093 0
-4589 132 0
-4590 2094 0
-4590 133 0
-4591 2095 0
-4591 134 0
-4592 2096 0
-4592 135 0
-4593 2097 0
-4593 136 0
-4594 2098 0
-4594 137 0
-4595 2099 0
-4595 138 0
-4596 2100 0
-4596 139 0
-4597 2101 0
-4597 140 0
4584 4585 4586 4587 4588 4589 4590 4591 4592 4593 4594 4595 4596 4597 0
-4598 2141 0
-4598 57 0
-4599 2142 0
-4599 58 0
-4600 2143 0
-4600 59 0
-4601 2144 0
-4601 60 0
-4602 2145 0
-4602 61 0
-4603 2146 0
-4603 62 0
-4604 2147 0
-4604 63 0
-4605 2148 0
-4605 64 0
-4606 2149 0
-4606 65 0
-4607 2150 0
-4607 66 0
-4608 2151 0
-4608 67 0
-4609 2152 0
-4609 68 0
-4610 2153 0
-4610 69 0
-4611 2154 0
-4611 70 0
4598 4599 4600 4601 4602 4603 4604 4605 4606 4607 4608 4609 4610 4611 0
-4612 2141 0
-4612 71 0
-4613 2142 0
-4613 72 0
-4614 2143 0
-4614 73 0
-4615 2144 0
-4615 74 0
-4616 2145 0
-4616 75 0
-4617 2146 0
-4617 76 0
-4618 2147 0
-4618 77 0
-4619 2148 0
-4619 78 0
-4620 2149 0
-4620 79 0
-4621 2150 0
-4621 80 0
-4622 2151 0
-4622 81 0
-4623 2152 0
-4623 82 0
-4624 2153 0
-4624 83 0
-4625 2154 0
-4625 84 0
4612 4613 4614 4615 4616 4617 4618 4619 4620 4621 4622 4623 4624 4625 0
-4626 2141 0
-4626 85 0
-4627 2142 0
-4627 86 0
-4628 2143 0
-4628 87 0
-4629 2144 0
-4629 88 0
-4630 2145 0
-4630 89 0
-4631 2146 0
-4631 90 0
-4632 2147 0
-4632 91 0
-4633 2148 0
-4633 92 0
-4634 2149 0
-4634 93 0
-4635 2150 0
-4635 94 0
-4636 2151 0
-4636 95 0
-4637 2152 0
-4637 96 0
-4638 2153 0
-4638 97 0
-4639 2154 0
-4639 98 0
4626 4627 4628 4629 4630 4631 4632 4633 4634 4635 4636 4637 4638 4639 0
-4640 2141 0
-4640 99 0
-4641 2142 0
-4641 100 0
-4642 2143 0
-4642 101 0
-4643 2144 0
-4643 102 0
-4644 2145 0
-4644 103 0
-4645 2146 0
-4645 104 0
-4646 2147 0
-4646 105 0
-4647 2148 0
-4647 106 0
-4648 2149 0
-4648 107 0
-4649 2150 0
-4649 108 0
-4650 2151 0
-4650 109 0
-4651 2152 0
-4651 110 0
-4652 2153 0
-4652 111 0
-4653 2154 0
-4653 112 0
4640 4641 4642 4643 4644 4645 4646 4647 4648 4649 4650 4651 4652 4653 0
-4654 2141 0
-4654 113 0
-4655 2142 0
-4655 114 0
-4656 2143 0
-4656 115 0
-4657 2144 0
-4657 116 0
-4658 2145 0
-4658 117 0
-4659 2146 0
-4659 118 0
-4660 2147 0
-4660 119 0
-4661 2148 0
-4661 120 0
-4662 2149 0
-4662 121 0
-4663 2150 0
-4663 122 0
-4664 2151 0
-4664 123 0
-4665 2152 0
-4665 124 0
-4666 2153 0
-4666 125 0
-4667 2154 0
-4667 126 0
4654 4655 4656 4657 4658 4659 4660 4661 4662 4663 4664 4665 4666 4667 0
-4668 2141 0
-4668 127 0
-4669 2142 0
-4669 128 0
-4670 2143 0
-4670 129 0
-4671 2144 0
-4671 130 0
-4672 2145 0
-4672 131 0
-4673 2146 0
-4673 132 0
-4674 2147 0
-4674 133 0
-4675 2148 0
-4675 134 0
-4676 2149 0
-4676 135 0
-4677 2150 0
-4677 136 0
-4678 2151 0
-4678 137 0
-4679 2152 0
-4679 138 0
-4680 2153 0
-4680 139 0
-4681 2154 0
-4681 140 0
4668 4669 4670 4671 4672 4673 4674 4675 4676 4677 4678 4679 4680 4681 0
-4682 2194 0
-4682 71 0
-4683 2195 0
-4683 72 0
-4684 2196 0
-4684 73 0
-4685 2197 0
-4685 74 0
-4686 2198 0
-4686 75 0
-4687 2199 0
-4687 76 0
-4688 2200 0
-4688 77 0
-4689 2201 0
-4689 78 0
-4690 2202 0
-4690 79 0
-4691 2203 0
-4691 80 0
-4692 2204 0
-4692 81 0
-4693 2205 0
-4693 82 0
-4694 2206 0
-4694 83 0
-4695 2207 0
-4695 84 0
4682 4683 4684 4685 4686 4687 4688 4689 4690 4691 4692 4693 4694 4695 0
-4696 2194 0
-4696 85 0
-4697 2195 0
-4697 86 0
-4698 2196 0
-4698 87 0
-4699 2197 0
-4699 88 0
-4700 2198 0
-4700 89 0
-4701 2199 0
-4701 90 0
-4702 2200 0
-4702 91 0
-4703 2201 0
-4703 92 0
-4704 2202 0
-4704 93 0
-4705 2203 0
-4705 94 0
-4706 2204 0
-4706 95 0
-4707 2205 0
-4707 96 0
-4708 2206 0
-4708 97 0
-4709 2207 0
-4709 98 0
4696 4697 4698 4699 4700 4701 4702 4703 4704 4705 4706 4707 4708 4709 0
-4710 2194 0
-4710 99 0
-4711 2195 0
-4711 100 0
-4712 2196 0
-4712 101 0
-4713 2197 0
-4713 102 0
-4714 2198 0
-4714 103 0
-4715 2199 0
-4715 104 0
-4716 2200 0
-4716 105 0
-4717 2201 0
-4717 106 0
-4718 2202 0
-4718 107 0
-4719 2203 0
-4719 108 0
-4720 2204 0
-4720 109 0
-4721 2205 0
-4721 110 0
-4722 2206 0
-4722 111 0
-4723 2207 0
-4723 112 0
4710 4711 4712 4713 4714 4715 4716 4717 4718 4719 4720 4721 4722 4723 0
-4724 2194 0
-4724 113 0
-4725 2195 0
-4725 114 0
-4726 2196 0
-4726 115 0
-4727 2197 0
-4727 116 0
-4728 2198 0
-4728 117 0
-4729 2199 0
-4729 118 0
-4730 2200 0
-4730 119 0
-4731 2201 0
-4731 120 0
-4732 2202 0
-4732 121 0
-4733 2203 0
-4733 122 0
-4734 2204 0
-4734 123 0
-4735 2205 0
-4735 124 0
-4736 2206 0
-4736 125 0
-4737 2207 0
-4737 126 0
4724 4725 4726 4727 4728 4729 4730 4731 4732 4733 4734 4735 4736 4737 0
-4738 2194 0
-4738 127 0
-4739 2195 0
-4739 128 0
-4740 2196 0
-4740 129 0
-4741 2197 0
-4741 130 0
-4742 2198 0
-4742 131 0
-4743 2199 0
-4743 132 0
-4744 2200 0
-4744 133 0
-4745 2201 0
-4745 134 0
-4746 2202 0
-4746 135 0
-4747 2203 0
-4747 136 0
-4748 2204 0
-4748 137 0
-4749 2205 0
-4749 138 0
-4750 2206 0
-4750 139 0
-4751 2207 0
-4751 140 0
4738 4739 4740 4741 4742 4743 4744 4745 4746 4747 4748 4749 4750 4751 0
-4752 2247 0
-4752 85 0
-4753 2248 0
-4753 86 0
-4754 2249 0
-4754 87 0
-4755 2250 0
-4755 88 0
-4756 2251 0
-4756 89 0
-4757 2252 0
-4757 90 0
-4758 2253 0
-4758 91 0
-4759 2254 0
-4759 92 0
-4760 2255 0
-4760 93 0
-4761 2256 0
-4761 94 0
-4762 2257 0
-4762 95 0
-4763 2258 0
-4763 96 0
-4764 2259 0
-4764 97 0
-4765 2260 0
-4765 98 0
4752 4753 4754 4755 4756 4757 4758 4759 4760 4761 4762 4763 4764 4765 0
-4766 2247 0
-4766 99 0
-4767 2248 0
-4767 100 0
-4768 2249 0
-4768 101 0
-4769 2250 0
-4769 102 0
-4770 2251 0
-4770 103 0
-4771 2252 0
-4771 104 0
-4772 2253 0
-4772 105 0
-4773 2254 0
-4773 106 0
-4774 2255 0
-4774 107 0
-4775 2256 0
-4775 108 0
-4776 2257 0
-4776 109 0
-4777 2258 0
-4777 110 0
-4778 2259 0
-4778 111 0
-4779 2260 0
-4779 112 0
4766 4767 4768 4769 4770 4771 4772 4773 4774 4775 4776 4777 4778 4779 0
-4780 2247 0
-4780 113 0
-4781 2248 0
-4781 114 0
-4782 2249 0
-4782 115 0
-4783 2250 0
-4783 116 0
-4784 2251 0
-4784 117 0
-4785 2252 0
-4785 118 0
-4786 2253 0
-4786 119 0
-4787 2254 0
-4787 120 0
-4788 2255 0
-4788 121 0
-4789 2256 0
-4789 122 0
-4790 2257 0
-4790 123 0
-4791 2258 0
-4791 124 0
-4792 2259 0
-4792 125 0
-4793 2260 0
-4793 126 0
4780 4781 4782 4783 4784 4785 4786 4787 4788 4789 4790 4791 4792 4793 0
-4794 2247 0
-4794 127 0
-4795 2248 0
-4795 128 0
-4796 2249 0
-4796 129 0
-4797 2250 0
-4797 130 0
-4798 2251 0
-4798 131 0
-4799 2252 0
-4799 132 0
-4800 2253 0
-4800 133 0
-4801 2254 0
-4801 134 0
-4802 2255 0
-4802 135 0
-4803 2256 0
-4803 136 0
-4804 2257 0
-4804 137 0
-4805 2258 0
-4805 138 0
-4806 2259 0
-4806 139 0
-4807 2260 0
-4807 140 0
4794 4795 4796 4797 4798 4799 4800 4801 4802 4803 4804 4805 4806 4807 0
-4808 2300 0
-4808 99 0
-4809 2301 0
-4809 100 0
-4810 2302 0
-4810 101 0
-4811 2303 0
-4811 102 0
-4812 2304 0
-4812 103 0
-4813 2305 0
-4813 104 0
-4814 2306 0
-4814 105 0
-4815 2307 0
-4815 106 0
-4816 2308 0
-4816 107 0
-4817 2309 0
-4817 108 0
-4818 2310 0
-4818 109 0
-4819 2311 0
-4819 110 0
-4820 2312 0
-4820 111 0
-4821 2313 0
-4821 112 0
4808 4809 4810 4811 4812 4813 4814 4815 4816 4817 4818 4819 4820 4821 0
-4822 2300 0
-4822 113 0
-4823 2301 0
-4823 114 0
-4824 2302 0
-4824 115 0
-4825 2303 0
-4825 116 0
-4826 2304 0
-4826 117 0
-4827 2305 0
-4827 118 0
-4828 2306 0
-4828 119 0
-4829 2307 0
-4829 120 0
-4830 2308 0
-4830 121 0
-4831 2309 0
-4831 122 0
-4832 2310 0
-4832 123 0
-4833 2311 0
-4833 124 0
-4834 2312 0
-4834 125 0
-4835 2313 0
-4835 126 0
4822 4823 4824 4825 4826 4827 4828 4829 4830 4831 4832 4833 4834 4835 0
-4836 2300 0
-4836 127 0
-4837 2301 0
-4837 128 0
-4838 2302 0
-4838 129 0
-4839 2303 0
-4839 130 0
-4840 2304 0
-4840 131 0
-4841 2305 0
-4841 132 0
-4842 2306 0
-4842 133 0
-4843 2307 0
-4843 134 0
-4844 2308 0
-4844 135 0
-4845 2309 0
-4845 136 0
-4846 2310 0
-4846 137 0
-4847 2311 0
-4847 138 0
-4848 2312 0
-4848 139 0
-4849 2313 0
-4849 140 0
4836 4837 4838 4839 4840 4841 4842 4843 4844 4845 4846 4847 4848 4849 0
-4850 2353 0
-4850 113 0
-4851 2354 0
-4851 114 0
-4852 2355 0
-4852 115 0
-4853 2356 0
-4853 116 0
-4854 2357 0
-4854 117 0
-4855 2358 0
-4855 118 0
-4856 2359 0
-4856 119 0
-4857 2360 0
-4857 120 0
-4858 2361 0
-4858 121 0
-4859 2362 0
-4859 122 0
-4860 2363 0
-4860 123 0
-4861 2364 0
-4861 124 0
-4862 2365 0
-4862 125 0
-4863 2366 0
-4863 126 0
4850 4851 4852 4853 4854 4855 4856 4857 4858 4859 4860 4861 4862 4863 0
-4864 2353 0
-4864 127 0
-4865 2354 0
-4865 128 0
-4866 2355 0
-4866 129 0
-4867 2356 0
-4867 130 0
-4868 2357 0
-4868 131 0
-4869 2358 0
-4869 132 0
-4870 2359 0
-4870 133 0
-4871 2360 0
-4871 134 0
-4872 2361 0
-4872 135 0
-4873 2362 0
-4873 136 0
-4874 2363 0
-4874 137 0
-4875 2364 0
-4875 138 0
-4876 2365 0
-4876 139 0
-4877 2366 0
-4877 140 0
4864 4865 4866 4867 4868 4869 4870 4871 4872 4873 4874 4875 4876 4877 0
-4878 2406 0
-4878 127 0
-4879 2407 0
-4879 128 0
-4880 2408 0
-4880 129 0
-4881 2409 0
-4881 130 0
-4882 2410 0
-4882 131 0
-4883 2411 0
-4883 132 0
-4884 2412 0
-4884 133 0
-4885 2413 0
-4885 134 0
-4886 2414 0
-4886 135 0
-4887 2415 0
-4887 136 0
-4888 2416 0
-4888 137 0
-4889 2417 0
-4889 138 0
-4890 2418 0
-4890 139 0
-4891 2419 0
-4891 140 0
4878 4879 4880 4881 4882 4883 4884 4885 4886 4887 4888 4889 4890 4891 0
-4892 2512 0
-4892 57 0
-4893 2513 0
-4893 58 0
-4894 2514 0
-4894 59 0
-4895 2515 0
-4895 60 0
-4896 2516 0
-4896 61 0
-4897 2517 0
-4897 62 0
-4898 2518 0
-4898 63 0
-4899 2519 0
-4899 64 0
-4900 2520 0
-4900 65 0
-4901 2521 0
-4901 66 0
-4902 2522 0
-4902 67 0
-4903 2523 0
-4903 68 0
-4904 2524 0
-4904 69 0
-4905 2525 0
-4905 70 0
4892 4893 4894 4895 4896 4897 4898 4899 4900 4901 4902 4903 4904 4905 0
-4906 2512 0
-4906 71 0
-4907 2513 0
-4907 72 0
-4908 2514 0
-4908 73 0
-4909 2515 0
-4909 74 0
-4910 2516 0
-4910 75 0
-4911 2517 0
-4911 76 0
-4912 2518 0
-4912 77 0
-4913 2519 0
-4913 78 0
-4914 2520 0
-4914 79 0
-4915 2521 0
-4915 80 0
-4916 2522 0
-4916 81 0
-4917 2523 0
-4917 82 0
-4918 2524 0
-4918 83 0
-4919 2525 0
-4919 84 0
4906 4907 4908 4909 4910 4911 4912 4913 4914 4915 4916 4917 4918 4919 0
-4920 2512 0
-4920 85 0
-4921 2513 0
-4921 86 0
-4922 2514 0
-4922 87 0
-4923 2515 0
-4923 88 0
-4924 2516 0
-4924 89 0
-4925 2517 0
-4925 90 0
-4926 2518 0
-4926 91 0
-4927 2519 0
-4927 92 0
-4928 2520 0
-4928 93 0
-4929 2521 0
-4929 94 0
-4930 2522 0
-4930 95 0
-4931 2523 0
-4931 96 0
-4932 2524 0
-4932 97 0
-4933 2525 0
-4933 98 0
4920 4921 4922 4923 4924 4925 4926 4927 4928 4929 4930 4931 4932 4933 0
-4934 2512 0
-4934 99 0
-4935 2513 0
-4935 100 0
-4936 2514 0
-4936 101 0
-4937 2515 0
-4937 102 0
-4938 2516 0
-4938 103 0
-4939 2517 0
-4939 104 0
-4940 2518 0
-4940 105 0
-4941 2519 0
-4941 106 0
-4942 2520 0
-4942 107 0
-4943 2521 0
-4943 108 0
-4944 2522 0
-4944 109 0
-4945 2523 0
-4945 110 0
-4946 2524 0
-4946 111 0
-4947 2525 0
-4947 112 0
4934 4935 4936 4937 4938 4939 4940 4941 4942 4943 4944 4945 4946 4947 0
-4948 2512 0
-4948 113 0
-4949 2513 0
-4949 114 0
-4950 2514 0
-4950 115 0
-4951 2515 0
-4951 116 0
-4952 2516 0
-4952 117 0
-4953 2517 0
-4953 118 0
-4954 2518 0
-4954 119 0
-4955 2519 0
-4955 120 0
-4956 2520 0
-4956 121 0
-4957 2521 0
-4957 122 0
-4958 2522 0
-4958 123 0
-4959 2523 0
-4959 124 0
-4960 2524 0
-4960 125 0
-4961 2525 0
-4961 126 0
4948 4949 4950 4951 4952 4953 4954 4955 4956 4957 4958 4959 4960 4961 0
-4962 2512 0
-4962 127 0
-4963 2513 0
-4963 128 0
-4964 2514 0
-4964 129 0
-4965 2515 0
-4965 130 0
-4966 2516 0
-4966 131 0
-4967 2517 0
-4967 132 0
-4968 2518 0
-4968 133 0
-4969 2519 0
-4969 134 0
-4970 2520 0
-4970 135 0
-4971 2521 0
-4971 136 0
-4972 2522 0
-4972 137 0
-4973 2523 0
-4973 138 0
-4974 2524 0
-4974 139 0
-4975 2525 0
-4975 140 0
4962 4963 4964 4965 4966 4967 4968 4969 4970 4971 4972 4973 4974 4975 0
-4976 2565 0
-4976 71 0
-4977 2566 0
-4977 72 0
-4978 2567 0
-4978 73 0
-4979 2568 0
-4979 74 0
-4980 2569 0
-4980 75 0
-4981 2570 0
-4981 76 0
-4982 2571 0
-4982 77 0
-4983 2572 0
-4983 78 0
-4984 2573 0
-4984 79 0
-4985 2574 0
-4985 80 0
-4986 2575 0
-4986 81 0
-4987 2576 0
-4987 82 0
-4988 2577 0
-4988 83 0
-4989 2578 0
-4989 84 0
4976 4977 4978 4979 4980 4981 4982 4983 4984 4985 4986 4987 4988 4989 0
-4990 2565 0
-4990 85 0
-4991 2566 0
-4991 86 0
-4992 2567 0
-4992 87 0
-4993 2568 0
-4993 88 0
-4994 2569 0
-4994 89 0
-4995 2570 0
-4995 90 0
-4996 2571 0
-4996 91 0
-4997 2572 0
-4997 92 0
-4998 2573 0
-4998 93 0
-4999 2574 0
-4999 94 0
-5000 2575 0
-5000 95 0
-5001 2576 0
-5001 96 0
-5002 2577 0
-5002 97 0
-5003 2578 0
-5003 98 0
4990 4991 4992 4993 4994 4995 4996 4997 4998 4999 5000 5001 5002 5003 0
-5004 2565 0
-5004 99 0
-5005 2566 0
-5005 100 0
-5006 2567 0
-5006 101 0
-5007 2568 0
-5007 102 0
-5008 2569 0
-5008 103 0
-5009 2570 0
-5009 104 0
-5010 2571 0
-5010 105 0
-5011 2572 0
-5011 106 0
-5012 2573 0
-5012 107 0
-5013 2574 0
-5013 108 0
-5014 2575 0
-5014 109 0
-5015 2576 0
-5015 110 0
-5016 2577 0
-5016 111 0
-5017 2578 0
-5017 112 0
5004 5005 5006 5007 5008 5009 5010 5011 5012 5013 5014 5015 5016 5017 0
-5018 2565 0
-5018 113 0
-5019 2566 0
-5019 114 0
-5020 2567 0
-5020 115 0
-5021 2568 0
-5021 116 0
-5022 2569 0
-5022 117 0
-5023 2570 0
-5023 118 0
-5024 2571 0
-5024 119 0
-5025 2572 0
-5025 120 0
-5026 2573 0
-5026 121 0
-5027 2574 0
-5027 122 0
-5028 2575 0
-5028 123 0
-5029 2576 0
-5029 124 0
-5030 2577 0
-5030 125 0
-5031 2578 0
-5031 126 0
5018 5019 5020 5021 5022 5023 5024 5025 5026 5027 5028 5029 5030 5031 0
-5032 2565 0
-5032 127 0
-5033 2566 0
-5033 128 0
-5034 2567 0
-5034 129 0
-5035 2568 0
-5035 130 0
-5036 2569 0
-5036 131 0
-5037 2570 0
-5037 132 0
-5038 2571 0
-5038 133 0
-5039 2572 0
-5039 134 0
-5040 2573 0
-5040 135 0
-5041 2574 0
-5041 136 0
-5042 2575 0
-5042 137 0
-5043 2576 0
-5043 138 0
-5044 2577 0
-5044 139 0
-5045 2578 0
-5045 140 0
5032 5033 5034 5035 5036 5037 5038 5039 5040 5041 5042 5043 5044 5045 0
-5046 2618 0
-5046 85 0
-5047 2619 0
-5047 86 0
-5048 2620 0
-5048 87 0
-5049 2621 0
-5049 88 0
-5050 2622 0
-5050 89 0
-5051 2623 0
-5051 90 0
-5052 2624 0
-5052 91 0
-5053 2625 0
-5053 92 0
-5054 2626 0
-5054 93 0
-5055 2627 0
-5055 94 0
-5056 2628 0
-5056 95 0
-5057 2629 0
-5057 96 0
-5058 2630 0
-5058 97 0
-5059 2631 0
-5059 98 0
5046 5047 5048 5049 5050 5051 5052 5053 5054 5055 5056 5057 5058 5059 0
-5060 2618 0
-5060 99 0
-5061 2619 0
-5061 100 0
-5062 2620 0
-5062 101 0
-5063 2621 0
-5063 102 0
-5064 2622 0
-5064 103 0
-5065 2623 0
-5065 104 0
-5066 2624 0
-5066 105 0
-5067 2625 0
-5067 106 0
-5068 2626 0
-5068 107 0
-5069 2627 0
-5069 108 0
-5070 2628 0
-5070 109 0
-5071 2629 0
-5071 110 0
-5072 2630 0
-5072 111 0
-5073 2631 0
-5073 112 0
5060 5061 5062 5063 5064 5065 5066 5067 5068 5069 5070 5071 5072 5073 0
-5074 2618 0
-5074 113 0
-5075 2619 0
-5075 114 0
-5076 2620 0
-5076 115 0
-5077 2621 0
-5077 116 0
-5078 2622 0
-5078 117 0
-5079 2623 0
-5079 118 0
-5080 2624 0
-5080 119 0
-5081 2625 0
-5081 120 0
-5082 2626 0
-5082 121 0
-5083 2627 0
-5083 122 0
-5084 2628 0
-5084 123 0
-5085 2629 0
-5085 124 0
-5086 2630 0
-5086 125 0
-5087 2631 0
-5087 126 0
5074 5075 5076 5077 5078 5079 5080 5081 5082 5083 5084 5085 5086 5087 0
-5088 2618 0
-5088 127 0
-5089 2619 0
-5089 128 0
-5090 2620 0
-5090 129 0
-5091 2621 0
-5091 130 0
-5092 2622 0
-5092 131 0
-5093 2623 0
-5093 132 0
-5094 2624 0
-5094 133 0
-5095 2625 0
-5095 134 0
-5096 2626 0
-5096 135 0
-5097 2627 0
-5097 136 0
-5098 2628 0
-5098 137 0
-5099 2629 0
-5099 138 0
-5100 2630 0
-5100 139 0
-5101 2631 0
-5101 140 0
5088 5089 5090 5091 5092 5093 5094 5095 5096 5097 5098 5099 5100 5101 0
-5102 2671 0
-5102 99 0
-5103 2672 0
-5103 100 0
-5104 2673 0
-5104 101 0
-5105 2674 0
-5105 102 0
-5106 2675 0
-5106 103 0
-5107 2676 0
-5107 104 0
-5108 2677 0
-5108 105 0
-5109 2678 0
-5109 106 0
-5110 2679 0
-5110 107 0
-5111 2680 0
-5111 108 0
-5112 2681 0
-5112 109 0
-5113 2682 0
-5113 110 0
-5114 2683 0
-5114 111 0
-5115 2684 0
-5115 112 0
5102 5103 5104 5105 5106 5107 5108 5109 5110 5111 5112 5113 5114 5115 0
-5116 2671 0
-5116 113 0
-5117 2672 0
-5117 114 0
-5118 2673 0
-5118 115 0
-5119 2674 0
-5119 116 0
-5120 2675 0
-5120 117 0
-5121 2676 0
-5121 118 0
-5122 2677 0
-5122 119 0
-5123 2678 0
-5123 120 0
-5124 2679 0
-5124 121 0
-5125 2680 0
-5125 122 0
-5126 2681 0
-5126 123 0
-5127 2682 0
-5127 124 0
-5128 2683 0
-5128 125 0
-5129 2684 0
-5129 126 0
5116 5117 5118 5119 5120 5121 5122 5123 5124 5125 5126 5127 5128 5129 0
-5130 2671 0
-5130 127 0
-5131 2672 0
-5131 128 0
-5132 2673 0
-5132 129 0
-5133 2674 0
-5133 130 0
-5134 2675 0
-5134 131 0
-5135 2676 0
-5135 132 0
-5136 2677 0
-5136 133 0
-5137 2678 0
-5137 134 0
-5138 2679 0
-5138 135 0
-5139 2680 0
-5139 136 0
-5140 2681 0
-5140 137 0
-5141 2682 0
-5141 138 0
-5142 2683 0
-5142 139 0
-5143 2684 0
-5143 140 0
5130 5131 5132 5133 5134 5135 5136 5137 5138 5139 5140 5141 5142 5143 0
-5144 2724 0
-5144 113 0
-5145 2725 0
-5145 114 0
-5146 2726 0
-5146 115 0
-5147 2727 0
-5147 116 0
-5148 2728 0
-5148 117 0
-5149 2729 0
-5149 118 0
-5150 2730 0
-5150 119 0
-5151 2731 0
-5151 120 0
-5152 2732 0
-5152 121 0
-5153 2733 0
-5153 122 0
-5154 2734 0
-5154 123 0
-5155 2735 0
-5155 124 0
-5156 2736 0
-5156 125 0
-5157 2737 0
-5157 126 0
5144 5145 5146 5147 5148 5149 5150 5151 5152 5153 5154 5155 5156 5157 0
-5158 2724 0
-5158 127 0
-5159 2725 0
-5159 128 0
-5160 2726 0
-5160 129 0
-5161 2727 0
-5161 130 0
-5162 2728 0
-5162 131 0
-5163 2729 0
-5163 132 0
-5164 2730 0
-5164 133 0
-5165 2731 0
-5165 134 0
-5166 2732 0
-5166 135 0
-5167 2733 0
-5167 136 0
-5168 2734 0
-5168 137 0
-5169 2735 0
-5169 138 0
-5170 2736 0
-5170 139 0
-5171 2737 0
-5171 140 0
5158 5159 5160 5161 5162 5163 5164 5165 5166 5167 5168 5169 5170 5171 0
-5172 2777 0
-5172 127 0
-5173 2778 0
-5173 128 0
-5174 2779 0
-5174 129 0
-5175 2780 0
-5175 130 0
-5176 2781 0
-5176 131 0
-5177 2782 0
-5177 132 0
-5178 2783 0
-5178 133 0
-5179 2784 0
-5179 134 0
-5180 2785 0
-5180 135 0
-5181 2786 0
-5181 136 0
-5182 2787 0
-5182 137 0
-5183 2788 0
-5183 138 0
-5184 2789 0
-5184 139 0
-5185 2790 0
-5185 140 0
5172 5173 5174 5175 5176 5177 5178 5179 5180 5181 5182 5183 5184 5185 0
-5186 2883 0
-5186 71 0
-5187 2884 0
-5187 72 0
-5188 2885 0
-5188 73 0
-5189 2886 0
-5189 74 0
-5190 2887 0
-5190 75 0
-5191 2888 0
-5191 76 0
-5192 2889 0
-5192 77 0
-5193 2890 0
-5193 78 0
-5194 2891 0
-5194 79 0
-5195 2892 0
-5195 80 0
-5196 2893 0
-5196 81 0
-5197 2894 0
-5197 82 0
-5198 2895 0
-5198 83 0
-5199 2896 0
-5199 84 0
5186 5187 5188 5189 5190 5191 5192 5193 5194 5195 5196 5197 5198 5199 0
-5200 2883 0
-5200 85 0
-5201 2884 0
-5201 86 0
-5202 2885 0
-5202 87 0
-5203 2886 0
-5203 88 0
-5204 2887 0
-5204 89 0
-5205 2888 0
-5205 90 0
-5206 2889 0
-5206 91 0
-5207 2890 0
-5207 92 0
-5208 2891 0
-5208 93 0
-5209 2892 0
-5209 94 0
-5210 2893 0
-5210 95 0
-5211 2894 0
-5211 96 0
-5212 2895 0
-5212 97 0
-5213 2896 0
-5213 98 0
5200 5201 5202 5203 5204 5205 5206 5207 5208 5209 5210 5211 5212 5213 0
-5214 2883 0
-5214 99 0
-5215 2884 0
-5215 100 0
-5216 2885 0
-5216 101 0
-5217 2886 0
-5217 102 0
-5218 2887 0
-5218 103 0
-5219 2888 0
-5219 104 0
-5220 2889 0
-5220 105 0
-5221 2890 0
-5221 106 0
-5222 2891 0
-5222 107 0
-5223 2892 0
-5223 108 0
-5224 2893 0
-5224 109 0
-5225 2894 0
-5225 110 0
-5226 2895 0
-5226 111 0
-5227 2896 0
-5227 112 0
5214 5215 5216 5217 5218 5219 5220 5221 5222 5223 5224 5225 5226 5227 0
-5228 2883 0
-5228 113 0
-5229 2884 0
-5229 114 0
-5230 2885 0
-5230 115 0
-5231 2886 0
-5231 116 0
-5232 2887 0
-5232 117 0
-5233 2888 0
-5233 118 0
-5234 2889 0
-5234 119 0
-5235 2890 0
-5235 120 0
-5236 2891 0
-5236 121 0
-5237 2892 0
-5237 122 0
-5238 2893 0
-5238 123 0
-5239 2894 0
-5239 124 0
-5240 2895 0
-5240 125 0
-5241 2896 0
-5241 126 0
5228 5229 5230 5231 5232 5233 5234 5235 5236 5237 5238 5239 5240 5241 0
-5242 2883 0
-5242 127 0
-5243 2884 0
-5243 128 0
-5244 2885 0
-5244 129 0
-5245 2886 0
-5245 130 0
-5246 2887 0
-5246 131 0
-5247 2888 0
-5247 132 0
-5248 2889 0
-5248 133 0
-5249 2890 0
-5249 134 0
-5250 2891 0
-5250 135 0
-5251 2892 0
-5251 136 0
-5252 2893 0
-5252 137 0
-5253 2894 0
-5253 138 0
-5254 2895 0
-5254 139 0
-5255 2896 0
-5255 140 0
5242 5243 5244 5245 5246 5247 5248 5249 5250 5251 5252 5253 5254 5255 0
-5256 2936 0
-5256 85 0
-5257 2937 0
-5257 86 0
-5258 2938 0
-5258 87 0
-5259 2939 0
-5259 88 0
-5260 2940 0
-5260 89 0
-5261 2941 0
-5261 90 0
-5262 2942 0
-5262 91 0
-5263 2943 0
-5263 92 0
-5264 2944 0
-5264 93 0
-5265 2945 0
-5265 94 0
-5266 2946 0
-5266 95 0
-5267 2947 0
-5267 96 0
-5268 2948 0
-5268 97 0
-5269 2949 0
-5269 98 0
5256 5257 5258 5259 5260 5261 5262 5263 5264 5265 5266 5267 5268 5269 0
-5270 2936 0
-5270 99 0
-5271 2937 0
-5271 100 0
-5272 2938 0
-5272 101 0
-5273 2939 0
-5273 102 0
-5274 2940 0
-5274 103 0
-5275 2941 0
-5275 104 0
-5276 2942 0
-5276 105 0
-5277 2943 0
-5277 106 0
-5278 2944 0
-5278 107 0
-5279 2945 0
-5279 108 0
-5280 2946 0
-5280 109 0
-5281 2947 0
-5281 110 0
-5282 2948 0
-5282 111 0
-5283 2949 0
-5283 112 0
5270 5271 5272 5273 5274 5275 5276 5277 5278 5279 5280 5281 5282 5283 0
-5284 2936 0
-5284 113 0
-5285 2937 0
-5285 114 0
-5286 2938 0
-5286 115 0
-5287 2939 0
-5287 116 0
-5288 2940 0
-5288 117 0
-5289 2941 0
-5289 118 0
-5290 2942 0
-5290 119 0
-5291 2943 0
-5291 120 0
-5292 2944 0
-5292 121 0
-5293 2945 0
-5293 122 0
-5294 2946 0
-5294 123 0
-5295 2947 0
-5295 124 0
-5296 2948 0
-5296 125 0
-5297 2949 0
-5297 126 0
5284 5285 5286 5287 5288 5289 5290 5291 5292 5293 5294 5295 5296 5297 0
-5298 2936 0
-5298 127 0
-5299 2937 0
-5299 128 0
-5300 2938 0
-5300 129 0
-5301 2939 0
-5301 130 0
-5302 2940 0
-5302 131 0
-5303 2941 0
-5303 132 0
-5304 2942 0
-5304 133 0
-5305 2943 0
-5305 134 0
-5306 2944 0
-5306 135 0
-5307 2945 0
-5307 136 0
-5308 2946 0
-5308 137 0
-5309 2947 0
-5309 138 0
-5310 2948 0
-5310 139 0
-5311 2949 0
-5311 140 0
5298 5299 5300 5301 5302 5303 5304 5305 5306 5307 5308 5309 5310 5311 0
-5312 2989 0
-5312 99 0
-5313 2990 0
-5313 100 0
-5314 2991 0
-5314 101 0
-5315 2992 0
-5315 102 0
-5316 2993 0
-5316 103 0
-5317 2994 0
-5317 104 0
-5318 2995 0
-5318 105 0
-5319 2996 0
-5319 106 0
-5320 2997 0
-5320 107 0
-5321 2998 0
-5321 108 0
-5322 2999 0
-5322 109 0
-5323 3000 0
-5323 110 0
-5324 3001 0
-5324 111 0
-5325 3002 0
-5325 112 0
5312 5313 5314 5315 5316 5317 5318 5319 5320 5321 5322 5323 5324 5325 0
-5326 2989 0
-5326 113 0
-5327 2990 0
-5327 114 0
-5328 2991 0
-5328 115 0
-5329 2992 0
-5329 116 0
-5330 2993 0
-5330 117 0
-5331 2994 0
-5331 118 0
-5332 2995 0
-5332 119 0
-5333 2996 0
-5333 120 0
-5334 2997 0
-5334 121 0
-5335 2998 0
-5335 122 0
-5336 2999 0
-5336 123 0
-5337 3000 0
-5337 124 0
-5338 3001 0
-5338 125 0
-5339 3002 0
-5339 126 0
5326 5327 5328 5329 5330 5331 5332 5333 5334 5335 5336 5337 5338 5339 0
-5340 2989 0
-5340 127 0
-5341 2990 0
-5341 128 0
-5342 2991 0
-5342 129 0
-5343 2992 0
-5343 130 0
-5344 2993 0
-5344 131 0
-5345 2994 0
-5345 132 0
-5346 2995 0
-5346 133 0
-5347 2996 0
-5347 134 0
-5348 2997 0
-5348 135 0
-5349 2998 0
-5349 136 0
-5350 2999 0
-5350 137 0
-5351 3000 0
-5351 138 0
-5352 3001 0
-5352 139 0
-5353 3002 0
-5353 140 0
5340 5341 5342 5343 5344 5345 5346 5347 5348 5349 5350 5351 5352 5353 0
-5354 3042 0
-5354 113 0
-5355 3043 0
-5355 114 0
-5356 3044 0
-5356 115 0
-5357 3045 0
-5357 116 0
-5358 3046 0
-5358 117 0
-5359 3047 0
-5359 118 0
-5360 3048 0
-5360 119 0
-5361 3049 0
-5361 120 0
-5362 3050 0
-5362 121 0
-5363 3051 0
-5363 122 0
-5364 3052 0
-5364 123 0
-5365 3053 0
-5365 124 0
-5366 3054 0
-5366 125 0
-5367 3055 0
-5367 126 0
5354 5355 5356 5357 5358 5359 5360 5361 5362 5363 5364 5365 5366 5367 0
-5368 3042 0
-5368 127 0
-5369 3043 0
-5369 128 0
-5370 3044 0
-5370 129 0
-5371 3045 0
-5371 130 0
-5372 3046 0
-5372 131 0
-5373 3047 0
-5373 132 0
-5374 3048 0
-5374 133 0
-5375 3049 0
-5375 134 0
-5376 3050 0
-5376 135 0
-5377 3051 0
-5377 136 0
-5378 3052 0
-5378 137 0
-5379 3053 0
-5379 138 0
-5380 3054 0
-5380 139 0
-5381 3055 0
-5381 140 0
5368 5369 5370 5371 5372 5373 5374 5375 5376 5377 5378 5379 5380 5381 0
-5382 3095 0
-5382 127 0
-5383 3096 0
-5383 128 0
-5384 3097 0
-5384 129 0
-5385 3098 0
-5385 130 0
-5386 3099 0
-5386 131 0
-5387 3100 0
-5387 132 0
-5388 3101 0
-5388 133 0
-5389 3102 0
-5389 134 0
-5390 3103 0
-5390 135 0
-5391 3104 0
-5391 136 0
-5392 3105 0
-5392 137 0
-5393 3106 0
-5393 138 0
-5394 3107 0
-5394 139 0
-5395 3108 0
-5395 140 0
5382 5383 5384 5385 5386 5387 5388 5389 5390 5391 5392 5393 5394 5395 0
-5396 3201 0
-5396 85 0
-5397 3202 0
-5397 86 0
-5398 3203 0
-5398 87 0
-5399 3204 0
-5399 88 0
-5400 3205 0
-5400 89 0
-5401 3206 0
-5401 90 0
-5402 3207 0
-5402 91 0
-5403 3208 0
-5403 92 0
-5404 3209 0
-5404 93 0
-5405 3210 0
-5405 94 0
-5406 3211 0
-5406 95 0
-5407 3212 0
-5407 96 0
-5408 3213 0
-5408 97 0
-5409 3214 0
-5409 98 0
5396 5397 5398 5399 5400 5401 5402 5403 5404 5405 5406 5407 5408 5409 0
-5410 3201 0
-5410 99 0
-5411 3202 0
-5411 100 0
-5412 3203 0
-5412 101 0
-5413 3204 0
-5413 102 0
-5414 3205 0
-5414 103 0
-5415 3206 0
-5415 104 0
-5416 3207 0
-5416 105 0
-5417 3208 0
-5417 106 0
-5418 3209 0
-5418 107 0
-5419 3210 0
-5419 108 0
-5420 3211 0
-5420 109 0
-5421 3212 0
-5421 110 0
-5422 3213 0
-5422 111 0
-5423 3214 0
-5423 112 0
5410 5411 5412 5413 5414 5415 5416 5417 5418 5419 5420 5421 5422 5423 0
-5424 3201 0
-5424 113 0
-5425 3202 0
-5425 114 0
-5426 3203 0
-5426 115 0
-5427 3204 0
-5427 116 0
-5428 3205 0
-5428 117 0
-5429 3206 0
-5429 118 0
-5430 3207 0
-5430 119 0
-5431 3208 0
-5431 120 0
-5432 3209 0
-5432 121 0
-5433 3210 0
-5433 122 0
-5434 3211 0
-5434 123 0
-5435 3212 0
-5435 124 0
-5436 3213 0
-5436 125 0
-5437 3214 0
-5437 126 0
5424 5425 5426 5427 5428 5429 5430 5431 5432 5433 5434 5435 5436 5437 0
-5438 3201 0
-5438 127 0
-5439 3202 0
-5439 128 0
-5440 3203 0
-5440 129 0
-5441 3204 0
-5441 130 0
-5442 3205 0
-5442 131 0
-5443 3206 0
-5443 132 0
-5444 3207 0
-5444 133 0
-5445 3208 0
-5445 134 0
-5446 3209 0
-5446 135 0
-5447 3210 0
-5447 136 0
-5448 3211 0
-5448 137 0
-5449 3212 0
-5449 138 0
-5450 3213 0
-5450 139 0
-5451 3214 0
-5451 140 0
5438 5439 5440 5441 5442 5443 5444 5445 5446 5447 5448 5449 5450 5451 0
-5452 3254 0
-5452 99 0
-5453 3255 0
-5453 100 0
-5454 3256 0
-5454 101 0
-5455 3257 0
-5455 102 0
-5456 3258 0
-5456 103 0
-5457 3259 0
-5457 104 0
-5458 3260 0
-5458 105 0
-5459 3261 0
-5459 106 0
-5460 3262 0
-5460 107 0
-5461 3263 0
-5461 108 0
-5462 3264 0
-5462 109 0
-5463 3265 0
-5463 110 0
-5464 3266 0
-5464 111 0
-5465 3267 0
-5465 112 0
5452 5453 5454 5455 5456 5457 5458 5459 5460 5461 5462 5463 5464 5465 0
-5466 3254 0
-5466 113 0
-5467 3255 0
-5467 114 0
-5468 3256 0
-5468 115 0
-5469 3257 0
-5469 116 0
-5470 3258 0
-5470 117 0
-5471 3259 0
-5471 118 0
-5472 3260 0
-5472 119 0
-5473 3261 0
-5473 120 0
-5474 3262 0
-5474 121 0
-5475 3263 0
-5475 122 0
-5476 3264 0
-5476 123 0
-5477 3265 0
-5477 124 0
-5478 3266 0
-5478 125 0
-5479 3267 0
-5479 126 0
5466 5467 5468 5469 5470 5471 5472 5473 5474 5475 5476 5477 5478 5479 0
-5480 3254 0
-5480 127 0
-5481 3255 0
-5481 128 0
-5482 3256 0
-5482 129 0
-5483 3257 0
-5483 130 0
-5484 3258 0
-5484 131 0
-5485 3259 0
-5485 132 0
-5486 3260 0
-5486 133 0
-5487 3261 0
-5487 134 0
-5488 3262 0
-5488 135 0
-5489 3263 0
-5489 136 0
-5490 3264 0
-5490 137 0
-5491 3265 0
-5491 138 0
-5492 3266 0
-5492 139 0
-5493 3267 0
-5493 140 0
5480 5481 5482 5483 5484 5485 5486 5487 5488 5489 5490 5491 5492 5493 0
-5494 3307 0
-5494 113 0
-5495 3308 0
-5495 114 0
-5496 3309 0
-5496 115 0
-5497 3310 0
-5497 116 0
-5498 3311 0
-5498 117 0
-5499 3312 0
-5499 118 0
-5500 3313 0
-5500 119 0
-5501 3314 0
-5501 120 0
-5502 3315 0
-5502 121 0
-5503 3316 0
-5503 122 0
-5504 3317 0
-5504 123 0
-5505 3318 0
-5505 124 0
-5506 3319 0
-5506 125 0
-5507 3320 0
-5507 126 0
5494 5495 5496 5497 5498 5499 5500 5501 5502 5503 5504 5505 5506 5507 0
-5508 3307 0
-5508 127 0
-5509 3308 0
-5509 128 0
-5510 3309 0
-5510 129 0
-5511 3310 0
-5511 130 0
-5512 3311 0
-5512 131 0
-5513 3312 0
-5513 132 0
-5514 3313 0
-5514 133 0
-5515 3314 0
-5515 134 0
-5516 3315 0
-5516 135 0
-5517 3316 0
-5517 136 0
-5518 3317 0
-5518 137 0
-5519 3318 0
-5519 138 0
-5520 3319 0
-5520 139 0
-5521 3320 0
-5521 140 0
5508 5509 5510 5511 5512 5513 5514 5515 5516 5517 5518 5519 5520 5521 0
-5522 3360 0
-5522 127 0
-5523 3361 0
-5523 128 0
-5524 3362 0
-5524 129 0
-5525 3363 0
-5525 130 0
-5526 3364 0
-5526 131 0
-5527 3365 0
-5527 132 0
-5528 3366 0
-5528 133 0
-5529 3367 0
-5529 134 0
-5530 3368 0
-5530 135 0
-5531 3369 0
-5531 136 0
-5532 3370 0
-5532 137 0
-5533 3371 0
-5533 138 0
-5534 3372 0
-5534 139 0
-5535 3373 0
-5535 140 0
5522 5523 5524 5525 5526 5527 5528 5529 5530 5531 5532 5533 5534 5535 0
-5536 3466 0
-5536 99 0
-5537 3467 0
-5537 100 0
-5538 3468 0
-5538 101 0
-5539 3469 0
-5539 102 0
-5540 3470 0
-5540 103 0
-5541 3471 0
-5541 104 0
-5542 3472 0
-5542 105 0
-5543 3473 0
-5543 106 0
-5544 3474 0
-5544 107 0
-5545 3475 0
-5545 108 0
-5546 3476 0
-5546 109 0
-5547 3477 0
-5547 110 0
-5548 3478 0
-5548 111 0
-5549 3479 0
-5549 112 0
5536 5537 5538 5539 5540 5541 5542 5543 5544 5545 5546 5547 5548 5549 0
-5550 3466 0
-5550 113 0
-5551 3467 0
-5551 114 0
-5552 3468 0
-5552 115 0
-5553 3469 0
-5553 116 0
-5554 3470 0
-5554 117 0
-5555 3471 0
-5555 118 0
-5556 3472 0
-5556 119 0
-5557 3473 0
-5557 120 0
-5558 3474 0
-5558 121 0
-5559 3475 0
-5559 122 0
-5560 3476 0
-5560 123 0
-5561 3477 0
-5561 124 0
-5562 3478 0
-5562 125 0
-5563 3479 0
-5563 126 0
5550 5551 5552 5553 5554 5555 5556 5557 5558 5559 5560 5561 5562 5563 0
-5564 3466 0
-5564 127 0
-5565 3467 0
-5565 128 0
-5566 3468 0
-5566 129 0
-5567 3469 0
-5567 130 0
-5568 3470 0
-5568 131 0
-5569 3471 0
-5569 132 0
-5570 3472 0
-5570 133 0
-5571 3473 0
-5571 134 0
-5572 3474 0
-5572 135 0
-5573 3475 0
-5573 136 0
-5574 3476 0
-5574 137 0
-5575 3477 0
-5575 138 0
-5576 3478 0
-5576 139 0
-5577 3479 0
-5577 140 0
5564 5565 5566 5567 5568 5569 5570 5571 5572 5573 5574 5575 5576 5577 0
-5578 3519 0
-5578 113 0
-5579 3520 0
-5579 114 0
-5580 3521 0
-5580 115 0
-5581 3522 0
-5581 116 0
-5582 3523 0
-5582 117 0
-5583 3524 0
-5583 118 0
-5584 3525 0
-5584 119 0
-5585 3526 0
-5585 120 0
-5586 3527 0
-5586 121 0
-5587 3528 0
-5587 122 0
-5588 3529 0
-5588 123 0
-5589 3530 0
-5589 124 0
-5590 3531 0
-5590 125 0
-5591 3532 0
-5591 126 0
5578 5579 5580 5581 5582 5583 5584 5585 5586 5587 5588 5589 5590 5591 0
-5592 3519 0
-5592 127 0
-5593 3520 0
-5593 128 0
-5594 3521 0
-5594 129 0
-5595 3522 0
-5595 130 0
-5596 3523 0
-5596 131 0
-5597 3524 0
-5597 132 0
-5598 3525 0
-5598 133 0
-5599 3526 0
-5599 134 0
-5600 3527 0
-5600 135 0
-5601 3528 0
-5601 136 0
-5602 3529 0
-5602 137 0
-5603 3530 0
-5603 138 0
-5604 3531 0
-5604 139 0
-5605 3532 0
-5605 140 0
5592 5593 5594 5595 5596 5597 5598 5599 5600 5601 5602 5603 5604 5605 0
-5606 3572 0
-5606 127 0
-5607 3573 0
-5607 128 0
-5608 3574 0
-5608 129 0
-5609 3575 0
-5609 130 0
-5610 3576 0
-5610 131 0
-5611 3577 0
-5611 132 0
-5612 3578 0
-5612 133 0
-5613 3579 0
-5613 134 0
-5614 3580 0
-5614 135 0
-5615 3581 0
-5615 136 0
-5616 3582 0
-5616 137 0
-5617 3583 0
-5617 138 0
-5618 3584 0
-5618 139 0
-5619 3585 0
-5619 140 0
5606 5607 5608 5609 5610 5611 5612 5613 5614 5615 5616 5617 5618 5619 0
-5620 3678 0
-5620 113 0
-5621 3679 0
-5621 114 0
-5622 3680 0
-5622 115 0
-5623 3681 0
-5623 116 0
-5624 3682 0
-5624 117 0
-5625 3683 0
-5625 118 0
-5626 3684 0
-5626 119 0
-5627 3685 0
-5627 120 0
-5628 3686 0
-5628 121 0
-5629 3687 0
-5629 122 0
-5630 3688 0
-5630 123 0
-5631 3689 0
-5631 124 0
-5632 3690 0
-5632 125 0
-5633 3691 0
-5633 126 0
5620 5621 5622 5623 5624 5625 5626 5627 5628 5629 5630 5631 5632 5633 0
-5634 3678 0
-5634 127 0
-5635 3679 0
-5635 128 0
-5636 3680 0
-5636 129 0
-5637 3681 0
-5637 130 0
-5638 3682 0
-5638 131 0
-5639 3683 0
-5639 132 0
-5640 3684 0
-5640 133 0
-5641 3685 0
-5641 134 0
-5642 3686 0
-5642 135 0
-5643 3687 0
-5643 136 0
-5644 3688 0
-5644 137 0
-5645 3689 0
-5645 138 0
-5646 3690 0
-5646 139 0
-5647 3691 0
-5647 140 0
5634 5635 5636 5637 5638 5639 5640 5641 5642 5643 5644 5645 5646 5647 0
-5648 3731 0
-5648 127 0
-5649 3732 0
-5649 128 0
-5650 3733 0
-5650 129 0
-5651 3734 0
-5651 130 0
-5652 3735 0
-5652 131 0
-5653 3736 0
-5653 132 0
-5654 3737 0
-5654 133 0
-5655 3738 0
-5655 134 0
-5656 3739 0
-5656 135 0
-5657 3740 0
-5657 136 0
-5658 3741 0
-5658 137 0
-5659 3742 0
-5659 138 0
-5660 3743 0
-5660 139 0
-5661 3744 0
-5661 140 0
5648 5649 5650 5651 5652 5653 5654 5655 5656 5657 5658 5659 5660 5661 0
-5662 3837 0
-5662 127 0
-5663 3838 0
-5663 128 0
-5664 3839 0
-5664 129 0
-5665 3840 0
-5665 130 0
-5666 3841 0
-5666 131 0
-5667 3842 0
-5667 132 0
-5668 3843 0
-5668 133 0
-5669 3844 0
-5669 134 0
-5670 3845 0
-5670 135 0
-5671 3846 0
-5671 136 0
-5672 3847 0
-5672 137 0
-5673 3848 0
-5673 138 0
-5674 3849 0
-5674 139 0
-5675 3850 0
-5675 140 0
5662 5663 5664 5665 5666 5667 5668 5669 5670 5671 5672 5673 5674 5675 0
1 0
15 0
2 0
16 0
3 0
17 0
4 0
-18 0
5 0
-19 0
6 0
-20 0
7 0
-21 0
-8 0
22 0
-9 0
23 0
-10 0
24 0
-11 0
25 0
-12 0
-26 0
-13 0
-27 0
-14 0
-28 0
29 -43 0
29 43 5676 0
-29 -43 5676 0
-5676 30 -44 0
-5676 30 44 5677 0
-5676 -30 -44 5677 0
-5677 31 -45 0
-5677 31 45 5678 0
-5677 -31 -45 5678 0
-5678 32 -46 0
-5678 32 46 5679 0
-5678 -32 -46 5679 0
-5679 33 -47 0
-5679 33 47 5680 0
-5679 -33 -47 5680 0
-5680 34 -48 0
-5680 34 48 5681 0
-5680 -34 -48 5681 0
-5681 35 -49 0
-5681 35 49 5682 0
-5681 -35 -49 5682 0
-5682 36 -50 0
-5682 36 50 5683 0
-5682 -36 -50 5683 0
-5683 37 -51 0
-5683 37 51 5684 0
-5683 -37 -51 5684 0
-5684 38 -52 0
-5684 38 52 5685 0
-5684 -38 -52 5685 0
-5685 39 -53 0
-5685 39 53 5686 0
-5685 -39 -53 5686 0
-5686 40 -54 0
-5686 40 54 5687 0
-5686 -40 -54 5687 0
-5687 41 -55 0
-5687 41 55 5688 0
-5687 -41 -55 5688 0
-5688 42 -56 0
43 -57 0
43 57 5689 0
-43 -57 5689 0
-5689 44 -58 0
-5689 44 58 5690 0
-5689 -44 -58 5690 0
-5690 45 -59 0
-5690 45 59 5691 0
-5690 -45 -59 5691 0
-5691 46 -60 0
-5691 46 60 5692 0
-5691 -46 -60 5692 0
-5692 47 -61 0
-5692 47 61 5693 0
-5692 -47 -61 5693 0
-5693 48 -62 0
-5693 48 62 5694 0
-5693 -48 -62 5694 0
-5694 49 -63 0
-5694 49 63 5695 0
-5694 -49 -63 5695 0
-5695 50 -64 0
-5695 50 64 5696 0
-5695 -50 -64 5696 0
-5696 51 -65 0
-5696 51 65 5697 0
-5696 -51 -65 5697 0
-5697 52 -66 0
-5697 52 66 5698 0
-5697 -52 -66 5698 0
-5698 53 -67 0
-5698 53 67 5699 0
-5698 -53 -67 5699 0
-5699 54 -68 0
-5699 54 68 5700 0
-5699 -54 -68 5700 0
-5700 55 -69 0
-5700 55 69 5701 0
-5700 -55 -69 5701 0
-5701 56 -70 0
57 -71 0
57 71 5702 0
-57 -71 5702 0
-5702 58 -72 0
-5702 58 72 5703 0
-5702 -58 -72 5703 0
-5703 59 -73 0
-5703 59 73 5704 0
-5703 -59 -73 5704 0
-5704 60 -74 0
-5704 60 74 5705 0
-5704 -60 -74 5705 0
-5705 61 -75 0
-5705 61 75 5706 0
-5705 -61 -75 5706 0
-5706 62 -76 0
-5706 62 76 5707 0
-5706 -62 -76 5707 0
-5707 63 -77 0
-5707 63 77 5708 0
-5707 -63 -77 5708 0
-5708 64 -78 0
-5708 64 78 5709 0
-5708 -64 -78 5709 0
-5709 65 -79 0
-5709 65 79 5710 0
-5709 -65 -79 5710 0
-5710 66 -80 0
-5710 66 80 5711 0
-5710 -66 -80 5711 0
-5711 67 -81 0
-5711 67 81 5712 0
-5711 -67 -81 5712 0
-5712 68 -82 0
-5712 68 82 5713 0
-5712 -68 -82 5713 0
-5713 69 -83 0
-5713 69 83 5714 0
-5713 -69 -83 5714 0
-5714 70 -84 0
71 -85 0
71 85 5715 0
-71 -85 5715 0
-5715 72 -86 0
-5715 72 86 5716 0
-5715 -72 -86 5716 0
-5716 73 -87 0
-5716 73 87 5717 0
-5716 -73 -87 5717 0
-5717 74 -88 0
-5717 74 88 5718 0
-5717 -74 -88 5718 0
-5718 75 -89 0
-5718 75 89 5719 0
-5718 -75 -89 5719 0
-5719 76 -90 0
-5719 76 90 5720 0
-5719 -76 -90 5720 0
-5720 77 -91 0
-5720 77 91 5721 0
-5720 -77 -91 5721 0
-5721 78 -92 0
-5721 78 92 5722 0
-5721 -78 -92 5722 0
-5722 79 -93 0
-5722 79 93 5723 0
-5722 -79 -93 5723 0
-5723 80 -94 0
-5723 80 94 5724 0
-5723 -80 -94 5724 0
-5724 81 -95 0
-5724 81 95 5725 0
-5724 -81 -95 5725 0
-5725 82 -96 0
-5725 82 96 5726 0
-5725 -82 -96 5726 0
-5726 83 -97 0
-5726 83 97 5727 0
-5726 -83 -97 5727 0
-5727 84 -98 0
85 -99 0
85 99 5728 0
-85 -99 5728 0
-5728 86 -100 0
-5728 86 100 5729 0
-5728 -86 -100 5729 0
-5729 87 -101 0
-5729 87 101 5730 0
-5729 -87 -101 5730 0
-5730 88 -102 0
-5730 88 102 5731 0
-5730 -88 -102 5731 0
-5731 89 -103 0
-5731 89 103 5732 0
-5731 -89 -103 5732 0
-5732 90 -104 0
-5732 90 104 5733 0
-5732 -90 -104 5733 0
-5733 91 -105 0
-5733 91 105 5734 0
-5733 -91 -105 5734 0
-5734 92 -106 0
-5734 92 106 5735 0
-5734 -92 -106 5735 0
-5735 93 -107 0
-5735 93 107 5736 0
-5735 -93 -107 5736 0
-5736 94 -108 0
-5736 94 108 5737 0
-5736 -94 -108 5737 0
-5737 95 -109 0
-5737 95 109 5738 0
-5737 -95 -109 5738 0
-5738 96 -110 0
-5738 96 110 5739 0
-5738 -96 -110 5739 0
-5739 97 -111 0
-5739 97 111 5740 0
-5739 -97 -111 5740 0
-5740 98 -112 0
99 -113 0
99 113 5741 0
-99 -113 5741 0
-5741 100 -114 0
-5741 100 114 5742 0
-5741 -100 -114 5742 0
-5742 101 -115 0
-5742 101 115 5743 0
-5742 -101 -115 5743 0
-5743 102 -116 0
-5743 102 116 5744 0
-5743 -102 -116 5744 0
-5744 103 -117 0
-5744 103 117 5745 0
-5744 -103 -117 5745 0
-5745 104 -118 0
-5745 104 118 5746 0
-5745 -104 -118 5746 0
-5746 105 -119 0
-5746 105 119 5747 0
-5746 -105 -119 5747 0
-5747 106 -120 0
-5747 106 120 5748 0
-5747 -106 -120 5748 0
-5748 107 -121 0
-5748 107 121 5749 0
-5748 -107 -121 5749 0
-5749 108 -122 0
-5749 108 122 5750 0
-5749 -108 -122 5750 0
-5750 109 -123 0
-5750 109 123 5751 0
-5750 -109 -123 5751 0
-5751 110 -124 0
-5751 110 124 5752 0
-5751 -110 -124 5752 0
-5752 111 -125 0
-5752 111 125 5753 0
-5752 -111 -125 5753 0
-5753 112 -126 0
113 -127 0
113 127 5754 0
-113 -127 5754 0
-5754 114 -128 0
-5754 114 128 5755 0
-5754 -114 -128 5755 0
-5755 115 -129 0
-5755 115 129 5756 0
-5755 -115 -129 5756 0
-5756 116 -130 0
-5756 116 130 5757 0
-5756 -116 -130 5757 0
-5757 117 -131 0
-5757 117 131 5758 0
-5757 -117 -131 5758 0
-5758 118 -132 0
-5758 118 132 5759 0
-5758 -118 -132 5759 0
-5759 119 -133 0
-5759 119 133 5760 0
-5759 -119 -133 5760 0
-5760 120 -134 0
-5760 120 134 5761 0
-5760 -120 -134 5761 0
-5761 121 -135 0
-5761 121 135 5762 0
-5761 -121 -135 5762 0
-5762 122 -136 0
-5762 122 136 5763 0
-5762 -122 -136 5763 0
-5763 123 -137 0
-5763 123 137 5764 0
-5763 -123 -137 5764 0
-5764 124 -138 0
-5764 124 138 5765 0
-5764 -124 -138 5765 0
-5765 125 -139 0
-5765 125 139 5766 0
-5765 -125 -139 5766 0
-5766 126 -140 0
29 -30 0
29 30 5767 0
-29 -30 5767 0
-5767 43 -44 0
-5767 43 44 5768 0
-5767 -43 -44 5768 0
-5768 57 -58 0
-5768 57 58 5769 0
-5768 -57 -58 5769 0
-5769 71 -72 0
-5769 71 72 5770 0
-5769 -71 -72 5770 0
-5770 85 -86 0
-5770 85 86 5771 0
-5770 -85 -86 5771 0
-5771 99 -100 0
-5771 99 100 5772 0
-5771 -99 -100 5772 0
-5772 113 -114 0
-5772 113 114 5773 0
-5772 -113 -114 5773 0
-5773 127 -128 0
30 -31 0
30 31 5774 0
-30 -31 5774 0
-5774 44 -45 0
-5774 44 45 5775 0
-5774 -44 -45 5775 0
-5775 58 -59 0
-5775 58 59 5776 0
-5775 -58 -59 5776 0
-5776 72 -73 0
-5776 72 73 5777 0
-5776 -72 -73 5777 0
-5777 86 -87 0
-5777 86 87 5778 0
-5777 -86 -87 5778 0
-5778 100 -101 0
-5778 100 101 5779 0
-5778 -100 -101 5779 0
-5779 114 -115 0
-5779 114 115 5780 0
-5779 -114 -115 5780 0
-5780 128 -129 0
32 -33 0
32 33 5781 0
-32 -33 5781 0
-5781 46 -47 0
-5781 46 47 5782 0
-5781 -46 -47 5782 0
-5782 60 -61 0
-5782 60 61 5783 0
-5782 -60 -61 5783 0
-5783 74 -75 0
-5783 74 75 5784 0
-5783 -74 -75 5784 0
-5784 88 -89 0
-5784 88 89 5785 0
-5784 -88 -89 5785 0
-5785 102 -103 0
-5785 102 103 5786 0
-5785 -102 -103 5786 0
-5786 116 -117 0
-5786 116 117 5787 0
-5786 -116 -117 5787 0
-5787 130 -131 0
33 -34 0
33 34 5788 0
-33 -34 5788 0
-5788 47 -48 0
-5788 47 48 5789 0
-5788 -47 -48 5789 0
-5789 61 -62 0
-5789 61 62 5790 0
-5789 -61 -62 5790 0
-5790 75 -76 0
-5790 75 76 5791 0
-5790 -75 -76 5791 0
-5791 89 -90 0
-5791 89 90 5792 0
-5791 -89 -90 5792 0
-5792 103 -104 0
-5792 103 104 5793 0
-5792 -103 -104 5793 0
-5793 117 -118 0
-5793 117 118 5794 0
-5793 -117 -118 5794 0
-5794 131 -132 0
34 -35 0
34 35 5795 0
-34 -35 5795 0
-5795 48 -49 0
-5795 48 49 5796 0
-5795 -48 -49 5796 0
-5796 62 -63 0
-5796 62 63 5797 0
-5796 -62 -63 5797 0
-5797 76 -77 0
-5797 76 77 5798 0
-5797 -76 -77 5798 0
-5798 90 -91 0
-5798 90 91 5799 0
-5798 -90 -91 5799 0
-5799 104 -105 0
-5799 104 105 5800 0
-5799 -104 -105 5800 0
-5800 118 -119 0
-5800 118 119 5801 0
-5800 -118 -119 5801 0
-5801 132 -133 0
36 -37 0
36 37 5802 0
-36 -37 5802 0
-5802 50 -51 0
-5802 50 51 5803 0
-5802 -50 -51 5803 0
-5803 64 -65 0
-5803 64 65 5804 0
-5803 -64 -65 5804 0
-5804 78 -79 0
-5804 78 79 5805 0
-5804 -78 -79 5805 0
-5805 92 -93 0
-5805 92 93 5806 0
-5805 -92 -93 5806 0
-5806 106 -107 0
-5806 106 107 5807 0
-5806 -106 -107 5807 0
-5807 120 -121 0
-5807 120 121 5808 0
-5807 -120 -121 5808 0
-5808 134 -135 0
37 -38 0
37 38 5809 0
-37 -38 5809 0
-5809 51 -52 0
-5809 51 52 5810 0
-5809 -51 -52 5810 0
-5810 65 -66 0
-5810 65 66 5811 0
-5810 -65 -66 5811 0
-5811 79 -80 0
-5811 79 80 5812 0
-5811 -79 -80 5812 0
-5812 93 -94 0
-5812 93 94 5813 0
-5812 -93 -94 5813 0
-5813 107 -108 0
-5813 107 108 5814 0
-5813 -107 -108 5814 0
-5814 121 -122 0
-5814 121 122 5815 0
-5814 -121 -122 5815 0
-5815 135 -136 0
38 -39 0
38 39 5816 0
-38 -39 5816 0
-5816 52 -53 0
-5816 52 53 5817 0
-5816 -52 -53 5817 0
-5817 66 -67 0
-5817 66 67 5818 0
-5817 -66 -67 5818 0
-5818 80 -81 0
-5818 80 81 5819 0
-5818 -80 -81 5819 0
-5819 94 -95 0
-5819 94 95 5820 0
-5819 -94 -95 5820 0
-5820 108 -109 0
-5820 108 109 5821 0
-5820 -108 -109 5821 0
-5821 122 -123 0
-5821 122 123 5822 0
-5821 -122 -123 5822 0
-5822 136 -137 0
40 -41 0
40 41 5823 0
-40 -41 5823 0
-5823 54 -55 0
-5823 54 55 5824 0
-5823 -54 -55 5824 0
-5824 68 -69 0
-5824 68 69 5825 0
-5824 -68 -69 5825 0
-5825 82 -83 0
-5825 82 83 5826 0
-5825 -82 -83 5826 0
-5826 96 -97 0
-5826 96 97 5827 0
-5826 -96 -97 5827 0
-5827 110 -111 0
-5827 110 111 5828 0
-5827 -110 -111 5828 0
-5828 124 -125 0
-5828 124 125 5829 0
-5828 -124 -125 5829 0
-5829 138 -139 0
41 -42 0
41 42 5830 0
-41 -42 5830 0
-5830 55 -56 0
-5830 55 56 5831 0
-5830 -55 -56 5831 0
-5831 69 -70 0
-5831 69 70 5832 0
-5831 -69 -70 5832 0
-5832 83 -84 0
-5832 83 84 5833 0
-5832 -83 -84 5833 0
-5833 97 -98 0
-5833 97 98 5834 0
-5833 -97 -98 5834 0
-5834 111 -112 0
-5834 111 112 5835 0
-5834 -111 -112 5835 0
-5835 125 -126 0
-5835 125 126 5836 0
-5835 -125 -126 5836 0
-5836 139 -140 0
